 vasp.5.4.4.18Apr17-6-g9f103f2a35 (build Feb 25 2019 10:51:38) complex

 executed on             LinuxIFC date 2023.03.14  11:40:47

 INCAR:
 POTCAR:    PAW_PBE Ir 06Sep2000
 POTCAR:    PAW_PBE O 08Apr2002
 POTCAR:    PAW_PBE Ir 06Sep2000
 POTCAR:    PAW_PBE O 08Apr2002

 POTCAR:    PAW_PBE Ir 06Sep2000
   VRHFIN =Ir: s1d8

   TITEL  = PAW_PBE Ir 06Sep2000
   POMASS =  192.220; ZVAL   =    9.000    mass and valenz
   ENMAX  =  210.864; ENMIN  =  158.148 eV

 POTCAR:    PAW_PBE O 08Apr2002
   VRHFIN =O: s2p4

   TITEL  = PAW_PBE O 08Apr2002
   POMASS =   16.000; ZVAL   =    6.000    mass and valenz
   ENMAX  =  400.000; ENMIN  =  300.000 eV

 POTCAR:    PAW_PBE Ir 06Sep2000
   VRHFIN =Ir: s1d8

   TITEL  = PAW_PBE Ir 06Sep2000
   POMASS =  192.220; ZVAL   =    9.000    mass and valenz
   ENMAX  =  210.864; ENMIN  =  158.148 eV

 POTCAR:    PAW_PBE O 08Apr2002
   VRHFIN =O: s2p4

   TITEL  = PAW_PBE O 08Apr2002
   POMASS =   16.000; ZVAL   =    6.000    mass and valenz
   ENMAX  =  400.000; ENMIN  =  300.000 eV

 Optimization of the real space projectors (new method)

 maximal supplied QI-value         = 14.36
 optimisation between [QCUT,QGAM] = [ 11.35, 22.84] = [ 36.05,146.02] Ry
 Optimized for a Real-space Cutoff    1.52 Angstroem

   l    n(q)    QCUT    max X(q) W(low)/X(q) W(high)/X(q)  e(spline)
   2      9    11.346   134.116    0.47E-03    0.13E-03    0.92E-06
   2      9    11.346   130.192    0.47E-03    0.13E-03    0.92E-06
   0     10    11.346    60.310    0.74E-04    0.13E-03    0.69E-06
   0     10    11.346    39.218    0.68E-04    0.12E-03    0.65E-06
   1     10    11.346    18.439    0.15E-03    0.34E-04    0.20E-06
   1     10    11.346    12.760    0.12E-03    0.31E-04    0.16E-06
 Optimization of the real space projectors (new method)

[...]

   l    n(q)    QCUT    max X(q) W(low)/X(q) W(high)/X(q)  e(spline)
   2      9    11.346   134.116    0.47E-03    0.13E-03    0.92E-06
   2      9    11.346   130.192    0.47E-03    0.13E-03    0.92E-06
   0     10    11.346    60.310    0.74E-04    0.13E-03    0.69E-06
   0     10    11.346    39.218    0.68E-04    0.12E-03    0.65E-06
   1     10    11.346    18.439    0.15E-03    0.34E-04    0.20E-06
   1     10    11.346    12.760    0.12E-03    0.31E-04    0.16E-06
 Optimization of the real space projectors (new method)

 maximal supplied QI-value         = 24.76
 optimisation between [QCUT,QGAM] = [ 11.39, 22.77] = [ 36.31,145.25] Ry
 Optimized for a Real-space Cutoff    1.00 Angstroem

   l    n(q)    QCUT    max X(q) W(low)/X(q) W(high)/X(q)  e(spline)
   0      7    11.387    20.381    0.39E-03    0.13E-02    0.15E-06
   0      7    11.387    15.268    0.42E-03    0.14E-02    0.17E-06
   1      6    11.387     5.964    0.41E-03    0.11E-02    0.17E-06
   1      6    11.387     5.382    0.39E-03    0.87E-03    0.15E-06

  PAW_PBE Ir 06Sep2000                  :
  PAW_PBE O 08Apr2002                   :
  PAW_PBE Ir 06Sep2000                  :
  PAW_PBE O 08Apr2002                   :

 POSCAR: Ir  O Ir  O
  positions in cartesian coordinates
 exchange correlation table for  LEXCH =        9
   RHO(1)=    0.500       N(1)  =     2000
   RHO(2)=  100.500       N(2)  =     4000

 VTST: version 3.2, (02/03/18)

 CHAIN: initializing optimizer

 OPT: Using VASP Dynamics algorithm
 CHAIN: Read ICHAIN            0

 POSCAR: Ir  O Ir  O
  positions in cartesian coordinates

 ion  position               nearest neighbor table
   1  0.125  0.500  0.188-  21 2.00  29 2.00  17 2.02  25 2.02  26 2.02  18 2.02   2 3.20  50 3.20

   2  0.375  0.500  0.188-  22 2.00  30 2.00  26 2.02  18 2.02  64 2.02  72 2.02   1 3.20  49 3.20

[...]

  64  0.500  0.500  0.140-  53 2.00  49 2.02   2 2.02
  65  0.750  0.500  0.140-  54 2.00  50 2.02  49 2.02
  66  0.500  0.000  0.015-   4 2.02  51 2.02
  67  0.750  0.000  0.015-  51 2.02  52 2.02
  68  0.625  0.808  0.188-  49 2.00  55 2.02  56 2.02
  69  0.875  0.808  0.188-  50 2.00   7 2.02  56 2.02
  70  0.625  0.308  0.062-  51 2.00  53 2.02  54 2.02
  71  0.875  0.308  0.062-  52 2.00   5 2.02  54 2.02
  72  0.500  0.500  0.235-  60 1.99  49 2.02   2 2.02
  73  0.750  0.500  0.235-  49 2.02  50 2.02  61 2.04
  74  0.500  0.000  0.110-  55 2.00  51 2.02   4 2.02
  75  0.750  0.000  0.110-  56 2.00  52 2.02  51 2.02
  76  0.625  0.192  0.188-  49 2.00  55 2.02  56 2.02
  77  0.875  0.192  0.188-  50 2.00   7 2.02  56 2.02
  78  0.625  0.692  0.062-  51 2.00  53 2.02  54 2.02
  79  0.875  0.692  0.062-  52 2.00   5 2.02  54 2.02
  80  0.502  0.500  0.389-  60 1.98  10 2.03  57 2.12
  81  0.733  0.500  0.388-  61 1.92  57 1.93
  82  0.501  0.000  0.265-  55 1.99  12 2.02  58 2.04
  83  0.750  0.000  0.265-  56 2.00  58 2.01  59 2.01
  84  0.626  0.812  0.441-  62 2.01  57 2.02  63 2.08
  85  0.875  0.815  0.438-  63 1.94  15 1.96
  86  0.625  0.308  0.311-  58 1.99  61 2.02  60 2.02
  87  0.875  0.309  0.314-  59 2.00  61 2.04  13 2.05
  88  0.498  0.500  0.482-  10 1.96  57 1.97
  89  0.710  0.500  0.497-  57 1.79
  90  0.500  0.000  0.359-  62 1.94  12 2.02  58 2.02
  91  0.750  0.000  0.362-  59 2.02  58 2.02  63 2.19
  92  0.626  0.188  0.441-  62 2.01  57 2.02  63 2.08
  93  0.875  0.185  0.438-  63 1.94  15 1.96
  94  0.625  0.692  0.311-  58 1.99  61 2.02  60 2.02
  95  0.875  0.691  0.314-  59 2.00  61 2.04  13 2.05
  96  0.750  0.000  0.515-  63 1.77

  LATTYP: Found a simple orthorhombic cell.
 ALAT       =     6.4702430000
 B/A-ratio  =     1.9796060210
 C/A-ratio  =     4.0000000000

  Lattice vectors:

 A1 = (   0.0000000000,  -6.4702430000,   0.0000000000)
 A2 = ( -12.8085320000,   0.0000000000,   0.0000000000)
 A3 = (   0.0000000000,   0.0000000000, -25.8809720000)

Analysis of symmetry for initial positions (statically):
 Subroutine PRICEL returns:
 Original cell was already a primitive cell.

 Routine SETGRP: Setting up the symmetry group for a
 simple orthorhombic supercell.

 Subroutine GETGRP returns: Found  2 space group operations
 (whereof  2 operations were pure point group operations)
 out of a pool of  8 trial point group operations.

The static configuration has the point symmetry C_1h.

Analysis of symmetry for dynamics (positions and initial velocities):
 Subroutine PRICEL returns:
 Original cell was already a primitive cell.

[...]

The dynamic configuration has the point symmetry C_1h.

Analysis of constrained symmetry for selective dynamics:
 Subroutine PRICEL returns:
 Original cell was already a primitive cell.

[...]

The constrained configuration has the point symmetry C_1h.

Analysis of structural, dynamic, and magnetic symmetry:
 Subroutine PRICEL returns:
 Original cell was already a primitive cell.

[...]

The magnetic configuration has the point symmetry C_1h.

 Subroutine INISYM returns: Found  2 space group operations
 (whereof  2 operations are pure point group operations),
 and found     1 'primitive' translations

 KPOINTS: Automatic mesh

Automatic generation of k-mesh.
Space group operators:
 irot       det(A)        alpha          n_x          n_y          n_z        tau_x        tau_y        tau_z
    1     1.000000     0.000001     1.000000     0.000000     0.000000     0.000000     0.000000     0.000000
    2    -1.000000   180.000000     0.000000     1.000000     0.000000     0.000000     0.000000     0.000000

 Subroutine IBZKPT returns following result:

 Found      4 irreducible k-points:

 Following reciprocal coordinates:
            Coordinates               Weight
  0.000000  0.000000  0.000000      1.000000
  0.333333  0.000000  0.000000      2.000000
  0.000000  0.333333  0.000000      2.000000
  0.333333  0.333333  0.000000      4.000000

 Following cartesian coordinates:
            Coordinates               Weight
  0.000000  0.000000  0.000000      1.000000
  0.026024  0.000000  0.000000      2.000000
  0.000000  0.051518  0.000000      2.000000
  0.026024  0.051518  0.000000      4.000000

 Subroutine IBZKPT_HF returns following result:

 Found      9 k-points in 1st BZ
 the following      9 k-points will be used (e.g. in the exchange kernel)
 Following reciprocal coordinates:   # in IRBZ
  0.000000  0.000000  0.000000    0.11111111   1 t-inv F
  0.333333  0.000000  0.000000    0.11111111   2 t-inv F
  0.000000  0.333333  0.000000    0.11111111   3 t-inv F
  0.333333  0.333333  0.000000    0.11111111   4 t-inv F
  0.000000 -0.333333  0.000000    0.11111111   3 t-inv F
  0.333333 -0.333333  0.000000    0.11111111   4 t-inv F
 -0.333333  0.000000  0.000000    0.11111111   2 t-inv T
 -0.333333 -0.333333  0.000000    0.11111111   4 t-inv T
 -0.333333  0.333333  0.000000    0.11111111   4 t-inv T

 SYSTEM =  unknown system
 POSCAR =  Ir  O Ir  O

 Startparameter for this run:
   NWRITE =      2    write-flag & timer
   PREC   = normal    normal or accurate (medium, high low for compatibility)
   ISTART =      0    job   : 0-new  1-cont  2-samecut
   ICHARG =      2    charge: 1-file 2-atom 10-const
   ISPIN  =      2    spin polarized calculation?
   LNONCOLLINEAR =      F non collinear calculations
   LSORBIT =      F    spin-orbit coupling
   INIWAV =      1    electr: 0-lowe 1-rand  2-diag
   LASPH  =      F    aspherical Exc in radial PAW
   METAGGA=      F    non-selfconsistent MetaGGA calc.

 Electronic Relaxation 1
   ENCUT  =  500.0 eV  36.75 Ry    6.06 a.u.  23.35 11.80 47.19*2*pi/ulx,y,z
   ENINI  =  500.0     initial cutoff
   ENAUG  =  605.4 eV  augmentation charge cutoff
   NELM   =     60;   NELMIN=  4; NELMDL= -5     # of ELM steps
   EDIFF  = 0.1E-05   stopping-criterion for ELM
   LREAL  =      T    real-space projection
   NLSPLINE    = F    spline interpolate recip. space projectors
   LCOMPAT=      F    compatible to vasp.4.4
   GGA_COMPAT  = T    GGA compatible to vasp.4.4-vasp.4.6
   LMAXPAW     = -100 max onsite density
   LMAXMIX     =    2 max onsite mixed and CHGCAR
   VOSKOWN=      0    Vosko Wilk Nusair interpolation
   ROPT   =   -0.00050  -0.00050  -0.00050  -0.00050
 Ionic relaxation
   EDIFFG = -.5E-01   stopping-criterion for IOM
   NSW    =   1189    number of steps for IOM
   NBLOCK =      1;   KBLOCK =   1189    inner block; outer block
   IBRION =      5    ionic relax: 0-MD 1-quasi-New 2-CG
   NFREE  =      2    steps in history (QN), initial steepest desc. (CG)
   ISIF   =      2    stress and relaxation
   IWAVPR =     11    prediction:  0-non 1-charg 2-wave 3-comb
   ISYM   =      2    0-nonsym 1-usesym 2-fastsym
   LCORR  =      T    Harris-Foulkes like correction to forces

   POTIM  = 0.5000    time-step for ionic-motion
   TEIN   =    0.0    initial temperature
   TEBEG  =    0.0;   TEEND  =   0.0 temperature during run
   SMASS  =  -3.00    Nose mass-parameter (am)
   estimated Nose-frequenzy (Omega)   =  0.10E-29 period in steps =****** mass=  -0.375E-26a.u.
   SCALEE = 1.0000    scale energy and forces
   NPACO  =    256;   APACO  = 16.0  distance and # of slots for P.C.
   PSTRESS=    0.0 pullay stress

  Mass of Ions in am
   POMASS = 192.22 16.00192.22 16.00
  Ionic Valenz
   ZVAL   =   9.00  6.00  9.00  6.00
  Atomic Wigner-Seitz radii
  virtual crystal weights
   VCA    =   1.00  1.00  1.00  1.00
   NELECT =     669.0000    total number of electrons
[...]
      9.60640      3.23512      1.61756         0.001665      0.000000      1.617784
      6.40427      0.00000      4.85268         0.011698      0.000000     -0.233520
      9.60640      0.00000      4.85268        -0.008752      0.000000     -0.253690
      8.04954      3.23512     11.42016        -0.012447      0.000000     -0.015386
      8.02911      0.00000      8.09566         0.017144      0.000000      0.002109
     11.18384      0.00000      8.10171         0.006737      0.000000      0.018089
      6.40448      3.23512      8.07894         0.025271      0.000000      0.028917
[...]
      6.41280      0.00000      6.84571         0.006846      0.000000     -0.003543
      9.60837      0.00000      6.84912        -0.016025      0.000000     -0.022924
      8.02051      5.25146     11.40211         0.018489     -0.017932      0.007123
     11.20482      5.27176     11.34632        -0.004479     -0.006571      0.004843
      7.99894      1.99113      8.03975        -0.023572      0.007291      0.015084
     11.20498      1.99993      8.12865        -0.002780      0.020255      0.018382
      6.37958      3.23512     12.46325        -0.017450      0.000000      0.017372
      9.09148      3.23512     12.87412         0.019328      0.000000      0.022760
      6.40857      0.00000      9.30201        -0.001282      0.000000     -0.015366
      9.60428      0.00000      9.36712        -0.010646      0.000000      0.025578
      8.02051      1.21878     11.40211         0.018489      0.017932      0.007123
     11.20482      1.19848     11.34632        -0.004479      0.006571      0.004843
      7.99894      4.47912      8.03975        -0.023572     -0.007291      0.015084
     11.20498      4.47031      8.12865        -0.002780     -0.020255      0.018382
      9.60405      0.00000     13.30975        -0.030593      0.000000      0.588374
    total drift:                                0.320700     -0.000215      0.015517

  FREE ENERGIE OF THE ION-ELECTRON SYSTEM (eV)
  free  energy   TOTEN  =      -610.27926410 eV

  energy  without entropy=     -610.20659741  energy(sigma->0) =     -610.24293075

 d Force =-0.4904886E-03[-0.177E-01, 0.167E-01]  d Energy =-0.2433082E-03-0.247E-03
 d Force =-0.6035247E+02[-0.606E+02,-0.602E+02]  d Ewald  =-0.6035169E+02-0.773E-03

 stress matrix after NEB project (eV)
    -17.92953      0.00000     -0.00833
      0.00000     -4.55865      0.00000
     -0.00833      0.00000     -3.93580
  FORCES: max atom, RMS     0.589169    0.060132
  FORCE total and by dimension    0.589169    0.588374
  Stress total and by dimension   18.914018   17.929531
 Finite differences progress:
  Degree of freedom:   3/  3
  Displacement:        2/  2
  Total:               6/  6

 SECOND DERIVATIVES (NOT SYMMETRIZED)
              96X         96Y         96Z
 96X    -4.265725    0.000000    1.205456
 96Y     0.011138   -2.628048    0.033445
 96Z     2.675155   -0.000000  -38.134964

 Eigenvectors and eigenvalues of the dynamical matrix

   1 f  =   24.170320 THz   151.866601 2PiTHz  806.235075 cm-1    99.960445 meV
             X         Y         Z           dx          dy          dz
      1.601066  3.235121  4.852682            0           0           0
      4.803199  3.235121  4.852682            0           0           0
      1.601066  0.000000  1.617561            0           0           0
      4.803199  0.000000  1.617561            0           0           0
      0.000000  3.235121  1.617561            0           0           0
      3.202133  3.235121  1.617561            0           0           0
      0.000000  0.000000  4.852682            0           0           0
      3.202133  0.000000  4.852682            0           0           0
      1.565704  3.235121 11.437407            0           0           0
      4.811547  3.235121 11.282472            0           0           0
      1.595678  0.000000  8.064492            0           0           0
      4.807661  0.000000  8.075706            0           0           0
      0.027037  3.235121  8.126483            0           0           0
      3.208614  3.235121  8.080604            0           0           0
     12.746081  0.000000 11.242373            0           0           0
      3.203171  0.000000 11.248487            0           0           0
      0.000000  3.235121  3.613243            0           0           0
      3.202133  3.235121  3.613243            0           0           0
      0.000000  0.000000  0.378121            0           0           0
      3.202133  0.000000  0.378121            0           0           0
      1.601066  5.230803  4.852682            0           0           0
      4.803199  5.230803  4.852682            0           0           0
      1.601066  1.995682  1.617561            0           0           0
      4.803199  1.995682  1.617561            0           0           0
      0.000000  3.235121  6.092122            0           0           0
      3.202133  3.235121  6.092122            0           0           0
      0.000000  0.000000  2.857000            0           0           0
      3.202133  0.000000  2.857000            0           0           0
      1.601066  1.239440  4.852682            0           0           0
      4.803199  1.239440  4.852682            0           0           0
      1.601066  4.474561  1.617561            0           0           0
      4.803199  4.474561  1.617561            0           0           0
      0.240209  3.235121 10.038489            0           0           0
      3.189323  3.235121 10.056734            0           0           0
     12.795886  0.000000  6.842770            0           0           0
      3.205088  0.000000  6.837047            0           0           0
      1.594269  5.261717 11.423229            0           0           0
      4.813249  5.239010 11.351046            0           0           0
      1.614405  1.993743  8.027782            0           0           0
      4.807858  1.995372  8.088888            0           0           0
      0.526028  3.235121 12.887955            0           0           0
      3.242859  3.235121 12.460958            0           0           0
     12.799282  0.000000  9.302723            0           0           0
      3.198460  0.000000  9.298720            0           0           0
      1.594269  1.208526 11.423229            0           0           0
      4.813249  1.231233 11.351046            0           0           0
      1.614405  4.476500  8.027782            0           0           0
      4.807858  4.474871  8.088888            0           0           0
      8.005332  3.235121  4.852682            0           0           0
     11.207465  3.235121  4.852682            0           0           0
      8.005332  0.000000  1.617561            0           0           0
     11.207465  0.000000  1.617561            0           0           0
      6.404266  3.235121  1.617561            0           0           0
      9.606399  3.235121  1.617561            0           0           0
      6.404266  0.000000  4.852682            0           0           0
      9.606399  0.000000  4.852682            0           0           0
      8.049541  3.235121 11.420162            0           0           0
      8.029110  0.000000  8.095657            0           0           0
     11.183840  0.000000  8.101712            0           0           0
      6.404475  3.235121  8.078935            0           0           0
[...]
      6.412796  0.000000  6.845706            0           0           0
      9.608374  0.000000  6.849116            0           0           0
      8.020511  5.251463 11.402113            0           0           0
     11.204824  5.271759 11.346318            0           0           0
      7.998941  1.991126  8.039746            0           0           0
     11.204978  1.999931  8.128654            0           0           0
      6.379580  3.235121 12.463247            0           0           0
      9.091476  3.235121 12.874115            0           0           0
      6.408573  0.000000  9.302014            0           0           0
      9.604283  0.000000  9.367117            0           0           0
      8.020511  1.218780 11.402113            0           0           0
     11.204824  1.198484 11.346318            0           0           0
      7.998941  4.479117  8.039746            0           0           0
     11.204978  4.470312  8.128654            0           0           0
      9.604048  0.000000 13.324754    -0.057008   -0.000460    0.998374

[...]

   3 f  =    6.335843 THz    39.809277 2PiTHz  211.340973 cm-1    26.202951 meV
             X         Y         Z           dx          dy          dz
      1.601066  3.235121  4.852682            0           0           0
      4.803199  3.235121  4.852682            0           0           0
      1.601066  0.000000  1.617561            0           0           0
      4.803199  0.000000  1.617561            0           0           0
      0.000000  3.235121  1.617561            0           0           0
      3.202133  3.235121  1.617561            0           0           0
      0.000000  0.000000  4.852682            0           0           0
      3.202133  0.000000  4.852682            0           0           0
      1.565704  3.235121 11.437407            0           0           0
      4.811547  3.235121 11.282472            0           0           0
      1.595678  0.000000  8.064492            0           0           0
      4.807661  0.000000  8.075706            0           0           0
      0.027037  3.235121  8.126483            0           0           0
      3.208614  3.235121  8.080604            0           0           0
     12.746081  0.000000 11.242373            0           0           0
      3.203171  0.000000 11.248487            0           0           0
      0.000000  3.235121  3.613243            0           0           0
      3.202133  3.235121  3.613243            0           0           0
      0.000000  0.000000  0.378121            0           0           0
      3.202133  0.000000  0.378121            0           0           0
      1.601066  5.230803  4.852682            0           0           0
      4.803199  5.230803  4.852682            0           0           0
      1.601066  1.995682  1.617561            0           0           0
      4.803199  1.995682  1.617561            0           0           0
      0.000000  3.235121  6.092122            0           0           0
      3.202133  3.235121  6.092122            0           0           0
      0.000000  0.000000  2.857000            0           0           0
      3.202133  0.000000  2.857000            0           0           0
      1.601066  1.239440  4.852682            0           0           0
      4.803199  1.239440  4.852682            0           0           0
      1.601066  4.474561  1.617561            0           0           0
      4.803199  4.474561  1.617561            0           0           0
      0.240209  3.235121 10.038489            0           0           0
      3.189323  3.235121 10.056734            0           0           0
     12.795886  0.000000  6.842770            0           0           0
      3.205088  0.000000  6.837047            0           0           0
      1.594269  5.261717 11.423229            0           0           0
      4.813249  5.239010 11.351046            0           0           0
      1.614405  1.993743  8.027782            0           0           0
      4.807858  1.995372  8.088888            0           0           0
      0.526028  3.235121 12.887955            0           0           0
      3.242859  3.235121 12.460958            0           0           0
     12.799282  0.000000  9.302723            0           0           0
      3.198460  0.000000  9.298720            0           0           0
      1.594269  1.208526 11.423229            0           0           0
      4.813249  1.231233 11.351046            0           0           0
      1.614405  4.476500  8.027782            0           0           0
      4.807858  4.474871  8.088888            0           0           0
      8.005332  3.235121  4.852682            0           0           0
     11.207465  3.235121  4.852682            0           0           0
      8.005332  0.000000  1.617561            0           0           0
     11.207465  0.000000  1.617561            0           0           0
      6.404266  3.235121  1.617561            0           0           0
      9.606399  3.235121  1.617561            0           0           0
      6.404266  0.000000  4.852682            0           0           0
      9.606399  0.000000  4.852682            0           0           0
      8.049541  3.235121 11.420162            0           0           0
      8.029110  0.000000  8.095657            0           0           0
     11.183840  0.000000  8.101712            0           0           0
      6.404475  3.235121  8.078935            0           0           0
[...]
      6.412796  0.000000  6.845706            0           0           0
      9.608374  0.000000  6.849116            0           0           0
      8.020511  5.251463 11.402113            0           0           0
     11.204824  5.271759 11.346318            0           0           0
      7.998941  1.991126  8.039746            0           0           0
     11.204978  1.999931  8.128654            0           0           0
      6.379580  3.235121 12.463247            0           0           0
      9.091476  3.235121 12.874115            0           0           0
      6.408573  0.000000  9.302014            0           0           0
      9.604283  0.000000  9.367117            0           0           0
      8.020511  1.218780 11.402113            0           0           0
     11.204824  1.198484 11.346318            0           0           0
      7.998941  4.479117  8.039746            0           0           0
     11.204978  4.470312  8.128654            0           0           0
      9.604048  0.000000 13.324754    -0.004233   -0.999991   -0.000702

 Finite differences POTIM=  1.500000000000000E-002
  LATTYP: Found a simple orthorhombic cell.
 ALAT       =     6.4702430000
 B/A-ratio  =     1.9796060210
 C/A-ratio  =     4.0000000000

  Lattice vectors:

 A1 = (   0.0000000000,  -6.4702430000,   0.0000000000)
 A2 = ( -12.8085320000,   0.0000000000,   0.0000000000)
 A3 = (   0.0000000000,   0.0000000000, -25.8809720000)

Analysis of symmetry for initial positions (statically):
 Subroutine PRICEL returns:
 Original cell was already a primitive cell.

[...]

The static configuration has the point symmetry C_1h.

Analysis of symmetry for dynamics (positions and initial velocities):
 Subroutine PRICEL returns:
 Original cell was already a primitive cell.

[...]

The dynamic configuration has the point symmetry C_1h.

Analysis of constrained symmetry for selective dynamics:
 Subroutine PRICEL returns:
 Original cell was already a primitive cell.

[...]

The constrained configuration has the point symmetry C_1h.

Analysis of structural, dynamic, and magnetic symmetry:
 Subroutine PRICEL returns:
 Original cell was already a primitive cell.

 Routine SETGRP: Setting up the symmetry group for a
 simple orthorhombic supercell.

 Subroutine GETGRP returns: Found  2 space group operations
 (whereof  2 operations were pure point group operations)
 out of a pool of  8 trial point group operations.

The magnetic configuration has the point symmetry C_1h.

 Subroutine INISYM returns: Found  2 space group operations
 (whereof  2 operations are pure point group operations),
 and found     1 'primitive' translations

 KPOINTS: Automatic mesh

Automatic generation of k-mesh.
Space group operators:
 irot       det(A)        alpha          n_x          n_y          n_z        tau_x        tau_y        tau_z
    1     1.000000     0.000001     1.000000     0.000000     0.000000     0.000000     0.000000     0.000000
    2    -1.000000   180.000000     0.000000     1.000000     0.000000     0.000000     0.000000     0.000000

 Subroutine IBZKPT returns following result:

 Found      4 irreducible k-points:

 Following reciprocal coordinates:
            Coordinates               Weight
  0.000000  0.000000  0.000000      1.000000
  0.333333  0.000000  0.000000      2.000000
  0.000000  0.333333  0.000000      2.000000
  0.333333  0.333333  0.000000      4.000000

 Following cartesian coordinates:
            Coordinates               Weight
  0.000000  0.000000  0.000000      1.000000
  0.026024  0.000000  0.000000      2.000000
  0.000000  0.051518  0.000000      2.000000
  0.026024  0.051518  0.000000      4.000000