 vasp.5.4.4.18Apr17-6-g9f103f2a35 (build Feb 25 2019 10:51:38) complex

 executed on             LinuxIFC date 2023.03.14  11:53:15

 INCAR:
 POTCAR:    PAW_PBE Ir 06Sep2000
 POTCAR:    PAW_PBE O 08Apr2002
 POTCAR:    PAW_PBE Ir 06Sep2000
 POTCAR:    PAW_PBE O 08Apr2002

 POTCAR:    PAW_PBE Ir 06Sep2000
   VRHFIN =Ir: s1d8

   TITEL  = PAW_PBE Ir 06Sep2000
   POMASS =  192.220; ZVAL   =    9.000    mass and valenz
   ENMAX  =  210.864; ENMIN  =  158.148 eV

 POTCAR:    PAW_PBE O 08Apr2002
   VRHFIN =O: s2p4

   TITEL  = PAW_PBE O 08Apr2002
   POMASS =   16.000; ZVAL   =    6.000    mass and valenz
   ENMAX  =  400.000; ENMIN  =  300.000 eV

 POTCAR:    PAW_PBE Ir 06Sep2000
   VRHFIN =Ir: s1d8

   TITEL  = PAW_PBE Ir 06Sep2000
   POMASS =  192.220; ZVAL   =    9.000    mass and valenz
   ENMAX  =  210.864; ENMIN  =  158.148 eV

 POTCAR:    PAW_PBE O 08Apr2002
   VRHFIN =O: s2p4

   TITEL  = PAW_PBE O 08Apr2002
   POMASS =   16.000; ZVAL   =    6.000    mass and valenz
   ENMAX  =  400.000; ENMIN  =  300.000 eV

 Optimization of the real space projectors (new method)

 maximal supplied QI-value         = 14.36
 optimisation between [QCUT,QGAM] = [ 11.35, 22.84] = [ 36.05,146.02] Ry
 Optimized for a Real-space Cutoff    1.52 Angstroem

   l    n(q)    QCUT    max X(q) W(low)/X(q) W(high)/X(q)  e(spline)
   2      9    11.346   134.116    0.47E-03    0.13E-03    0.92E-06
   2      9    11.346   130.192    0.47E-03    0.13E-03    0.92E-06
   0     10    11.346    60.310    0.74E-04    0.13E-03    0.69E-06
   0     10    11.346    39.218    0.68E-04    0.12E-03    0.65E-06
   1     10    11.346    18.439    0.15E-03    0.34E-04    0.20E-06
   1     10    11.346    12.760    0.12E-03    0.31E-04    0.16E-06
 Optimization of the real space projectors (new method)

[...]

   l    n(q)    QCUT    max X(q) W(low)/X(q) W(high)/X(q)  e(spline)
   2      9    11.346   134.116    0.47E-03    0.13E-03    0.92E-06
   2      9    11.346   130.192    0.47E-03    0.13E-03    0.92E-06
   0     10    11.346    60.310    0.74E-04    0.13E-03    0.69E-06
   0     10    11.346    39.218    0.68E-04    0.12E-03    0.65E-06
   1     10    11.346    18.439    0.15E-03    0.34E-04    0.20E-06
   1     10    11.346    12.760    0.12E-03    0.31E-04    0.16E-06
 Optimization of the real space projectors (new method)

 maximal supplied QI-value         = 24.76
 optimisation between [QCUT,QGAM] = [ 11.39, 22.77] = [ 36.31,145.25] Ry
 Optimized for a Real-space Cutoff    1.00 Angstroem

   l    n(q)    QCUT    max X(q) W(low)/X(q) W(high)/X(q)  e(spline)
   0      7    11.387    20.381    0.39E-03    0.13E-02    0.15E-06
   0      7    11.387    15.268    0.42E-03    0.14E-02    0.17E-06
   1      6    11.387     5.964    0.41E-03    0.11E-02    0.17E-06
   1      6    11.387     5.382    0.39E-03    0.87E-03    0.15E-06

  PAW_PBE Ir 06Sep2000                  :
  PAW_PBE O 08Apr2002                   :
  PAW_PBE Ir 06Sep2000                  :
  PAW_PBE O 08Apr2002                   :

 POSCAR: Ir  O Ir  O
  positions in cartesian coordinates
 exchange correlation table for  LEXCH =        9
   RHO(1)=    0.500       N(1)  =     2000
   RHO(2)=  100.500       N(2)  =     4000

 VTST: version 3.2, (02/03/18)

 CHAIN: initializing optimizer

 OPT: Using VASP Dynamics algorithm
 CHAIN: Read ICHAIN            0

 POSCAR: Ir  O Ir  O
  positions in cartesian coordinates

 ion  position               nearest neighbor table
   1  0.125  0.500  0.188-  21 2.00  29 2.00  17 2.02  25 2.02  26 2.02  18 2.02   2 3.20  50 3.20

   2  0.375  0.500  0.188-  22 2.00  30 2.00  26 2.02  18 2.02  64 2.02  72 2.02   1 3.20  49 3.20

[...]

  64  0.500  0.500  0.140-  53 2.00  49 2.02   2 2.02
  65  0.750  0.500  0.140-  54 2.00  50 2.02  49 2.02
  66  0.500  0.000  0.015-   4 2.02  51 2.02
  67  0.750  0.000  0.015-  51 2.02  52 2.02
  68  0.625  0.808  0.188-  49 2.00  55 2.02  56 2.02
  69  0.875  0.808  0.188-  50 2.00   7 2.02  56 2.02
  70  0.625  0.308  0.062-  51 2.00  53 2.02  54 2.02
  71  0.875  0.308  0.062-  52 2.00   5 2.02  54 2.02
  72  0.500  0.500  0.235-  60 1.98  49 2.02   2 2.02
  73  0.750  0.500  0.235-  49 2.02  50 2.02  61 2.03
  74  0.500  0.000  0.110-  55 2.00  51 2.02   4 2.02
  75  0.750  0.000  0.110-  56 2.00  52 2.02  51 2.02
  76  0.625  0.192  0.188-  49 2.00  55 2.02  56 2.02
  77  0.875  0.192  0.188-  50 2.00   7 2.02  56 2.02
  78  0.625  0.692  0.062-  51 2.00  53 2.02  54 2.02
  79  0.875  0.692  0.062-  52 2.00   5 2.02  54 2.02
  80  0.501  0.500  0.388-  60 1.97  10 2.02  57 2.12
  81  0.734  0.500  0.388-  61 1.91  57 1.93
  82  0.500  0.000  0.265-  55 2.00  12 2.01  58 2.03
  83  0.750  0.000  0.265-  56 2.00  59 2.01  58 2.03
  84  0.626  0.812  0.436-  57 2.02  62 2.02  63 2.08
  85  0.875  0.814  0.438-  63 1.94  15 1.95
  86  0.624  0.308  0.310-  58 1.99  60 2.02  61 2.02
  87  0.875  0.309  0.314-  59 2.00  61 2.04  13 2.04
  88  0.499  0.500  0.480-  57 1.95  10 1.96
  89  0.709  0.500  0.497-  57 1.79
  90  0.501  0.000  0.361-  12 2.02  58 2.02  62 2.10
  91  0.750  0.000  0.362-  59 2.02  58 2.03  63 2.14
  92  0.626  0.188  0.436-  57 2.02  62 2.02  63 2.08
  93  0.875  0.186  0.438-  63 1.94  15 1.95
  94  0.624  0.692  0.310-  58 1.99  60 2.02  61 2.02
  95  0.875  0.691  0.314-  59 2.00  61 2.04  13 2.04
  96  0.746  0.000  0.512-  63 1.77
  97  0.502  0.000  0.511-  62 1.79

  LATTYP: Found a simple orthorhombic cell.
 ALAT       =     6.4702430000
 B/A-ratio  =     1.9796060210
 C/A-ratio  =     4.0000000000

  Lattice vectors:

 A1 = (   0.0000000000,  -6.4702430000,   0.0000000000)
 A2 = ( -12.8085320000,   0.0000000000,   0.0000000000)
 A3 = (   0.0000000000,   0.0000000000, -25.8809720000)

Analysis of symmetry for initial positions (statically):
 Subroutine PRICEL returns:
 Original cell was already a primitive cell.

 Routine SETGRP: Setting up the symmetry group for a
 simple orthorhombic supercell.

 Subroutine GETGRP returns: Found  2 space group operations
 (whereof  2 operations were pure point group operations)
 out of a pool of  8 trial point group operations.

The static configuration has the point symmetry C_1h.

Analysis of symmetry for dynamics (positions and initial velocities):
 Subroutine PRICEL returns:
 Original cell was already a primitive cell.

[...]

The dynamic configuration has the point symmetry C_1h.

Analysis of constrained symmetry for selective dynamics:
 Subroutine PRICEL returns:
 Original cell was already a primitive cell.

[...]

The constrained configuration has the point symmetry C_1h.

Analysis of structural, dynamic, and magnetic symmetry:
 Subroutine PRICEL returns:
 Original cell was already a primitive cell.

[...]

The magnetic configuration has the point symmetry C_1h.

 Subroutine INISYM returns: Found  2 space group operations
 (whereof  2 operations are pure point group operations),
 and found     1 'primitive' translations

 KPOINTS: Automatic mesh

Automatic generation of k-mesh.
Space group operators:
 irot       det(A)        alpha          n_x          n_y          n_z        tau_x        tau_y        tau_z
    1     1.000000     0.000001     1.000000     0.000000     0.000000     0.000000     0.000000     0.000000
    2    -1.000000   180.000000     0.000000     1.000000     0.000000     0.000000     0.000000     0.000000

 Subroutine IBZKPT returns following result:

 Found      4 irreducible k-points:

 Following reciprocal coordinates:
            Coordinates               Weight
  0.000000  0.000000  0.000000      1.000000
  0.333333  0.000000  0.000000      2.000000
  0.000000  0.333333  0.000000      2.000000
  0.333333  0.333333  0.000000      4.000000

 Following cartesian coordinates:
            Coordinates               Weight
  0.000000  0.000000  0.000000      1.000000
  0.026024  0.000000  0.000000      2.000000
  0.000000  0.051518  0.000000      2.000000
  0.026024  0.051518  0.000000      4.000000

 Subroutine IBZKPT_HF returns following result:

 Found      9 k-points in 1st BZ
 the following      9 k-points will be used (e.g. in the exchange kernel)
 Following reciprocal coordinates:   # in IRBZ
  0.000000  0.000000  0.000000    0.11111111   1 t-inv F
  0.333333  0.000000  0.000000    0.11111111   2 t-inv F
  0.000000  0.333333  0.000000    0.11111111   3 t-inv F
  0.333333  0.333333  0.000000    0.11111111   4 t-inv F
  0.000000 -0.333333  0.000000    0.11111111   3 t-inv F
  0.333333 -0.333333  0.000000    0.11111111   4 t-inv F
 -0.333333  0.000000  0.000000    0.11111111   2 t-inv T
 -0.333333 -0.333333  0.000000    0.11111111   4 t-inv T
 -0.333333  0.333333  0.000000    0.11111111   4 t-inv T

 SYSTEM =  unknown system
 POSCAR =  Ir  O Ir  O

 Startparameter for this run:
   NWRITE =      2    write-flag & timer
   PREC   = normal    normal or accurate (medium, high low for compatibility)
   ISTART =      0    job   : 0-new  1-cont  2-samecut
   ICHARG =      2    charge: 1-file 2-atom 10-const
   ISPIN  =      2    spin polarized calculation?
   LNONCOLLINEAR =      F non collinear calculations
   LSORBIT =      F    spin-orbit coupling
   INIWAV =      1    electr: 0-lowe 1-rand  2-diag
   LASPH  =      F    aspherical Exc in radial PAW
   METAGGA=      F    non-selfconsistent MetaGGA calc.

 Electronic Relaxation 1
   ENCUT  =  500.0 eV  36.75 Ry    6.06 a.u.  23.35 11.80 47.19*2*pi/ulx,y,z
   ENINI  =  500.0     initial cutoff
   ENAUG  =  605.4 eV  augmentation charge cutoff
   NELM   =     60;   NELMIN=  4; NELMDL= -5     # of ELM steps
   EDIFF  = 0.1E-05   stopping-criterion for ELM
   LREAL  =      T    real-space projection
   NLSPLINE    = F    spline interpolate recip. space projectors
   LCOMPAT=      F    compatible to vasp.4.4
   GGA_COMPAT  = T    GGA compatible to vasp.4.4-vasp.4.6
   LMAXPAW     = -100 max onsite density
   LMAXMIX     =    2 max onsite mixed and CHGCAR
   VOSKOWN=      0    Vosko Wilk Nusair interpolation
   ROPT   =   -0.00050  -0.00050  -0.00050  -0.00050
 Ionic relaxation
   EDIFFG = -.5E-01   stopping-criterion for IOM
   NSW    =   1201    number of steps for IOM
   NBLOCK =      1;   KBLOCK =   1201    inner block; outer block
   IBRION =      5    ionic relax: 0-MD 1-quasi-New 2-CG
   NFREE  =      2    steps in history (QN), initial steepest desc. (CG)
   ISIF   =      2    stress and relaxation
   IWAVPR =     11    prediction:  0-non 1-charg 2-wave 3-comb
   ISYM   =      2    0-nonsym 1-usesym 2-fastsym
   LCORR  =      T    Harris-Foulkes like correction to forces

   POTIM  = 0.5000    time-step for ionic-motion
   TEIN   =    0.0    initial temperature
   TEBEG  =    0.0;   TEEND  =   0.0 temperature during run
   SMASS  =  -3.00    Nose mass-parameter (am)
   estimated Nose-frequenzy (Omega)   =  0.10E-29 period in steps =****** mass=  -0.375E-26a.u.
   SCALEE = 1.0000    scale energy and forces
   NPACO  =    256;   APACO  = 16.0  distance and # of slots for P.C.
   PSTRESS=    0.0 pullay stress

  Mass of Ions in am
   POMASS = 192.22 16.00192.22 16.00
  Ionic Valenz
   ZVAL   =   9.00  6.00  9.00  6.00
  Atomic Wigner-Seitz radii
  virtual crystal weights
   VCA    =   1.00  1.00  1.00  1.00
[...]
      8.01173      0.00000      8.10192        -0.000275      0.000000     -0.022121
     11.18521      0.00000      8.09354         0.007191      0.000000     -0.022059
      6.40575      3.23512      8.07474        -0.013153      0.000000     -0.000170
[...]
      9.60685      0.00000      6.85088         0.009429      0.000000      0.032652
      8.02191      5.25119     11.28460        -0.005027      0.012226     -0.002989
     11.21068      5.26775     11.33814        -0.001610      0.010288     -0.001940
      7.99658      1.99004      8.03504        -0.007589     -0.011214      0.018854
     11.20705      2.00143      8.12402         0.002477     -0.004858      0.012707
      6.38637      3.23512     12.43402        -0.018478      0.000000      0.016298
      9.08611      3.23512     12.85310         0.022027      0.000000      0.040699
      6.41289      0.00000      9.34295         0.005102      0.000000      0.006162
      9.61212      0.00000      9.35627        -0.007027      0.000000      0.017018
      8.02191      1.21906     11.28460        -0.005027     -0.012226     -0.002989
     11.21068      1.20249     11.33814        -0.001610     -0.010288     -0.001940
      7.99658      4.48020      8.03504        -0.007589      0.011214      0.018854
     11.20705      4.46881      8.12402         0.002477      0.004858      0.012707
      9.55384      0.00000     13.26005         0.008417      0.000000      0.034081
      6.43465      0.00000     13.21771        -0.031810      0.000000      0.551195
    total drift:                                0.289551     -0.004542     -0.250604

  FREE ENERGIE OF THE ION-ELECTRON SYSTEM (eV)
  free  energy   TOTEN  =      -616.01497399 eV

  energy  without entropy=     -615.94476420  energy(sigma->0) =     -615.97986909

 d Force =-0.1092603E-02[-0.165E-01, 0.144E-01]  d Energy =-0.5328558E-03-0.560E-03
 d Force =-0.6157479E+02[-0.618E+02,-0.614E+02]  d Ewald  =-0.6157411E+02-0.684E-03

 stress matrix after NEB project (eV)
    -17.99929      0.00000     -0.59247
      0.00000     -3.47101      0.00000
     -0.59247      0.00000     -3.68319
  FORCES: max atom, RMS     0.552112    0.056172
  FORCE total and by dimension    0.553227    0.551195
  Stress total and by dimension   18.716041   17.999289
 Finite differences progress:
  Degree of freedom:   6/  6
  Displacement:        2/  2
  Total:              12/ 12

 SECOND DERIVATIVES (NOT SYMMETRIZED)
              96X         96Y         96Z         97X         97Y         97Z
 96X    -2.353822    0.000000    3.289720    0.007296    0.000000    0.103714
 96Y     0.009043   -1.221826    0.038864    0.003646   -0.042995    0.003328
 96Z     3.667107    0.000000  -34.880792   -0.122160    0.000000   -0.277898
 97X     0.031538    0.000000   -0.112998   -4.025031    0.000000   -0.805895
 97Y    -0.004804   -0.032117    0.009642    0.007449   -3.026788    0.025911
 97Z     0.089235   -0.000000   -0.260652    0.224451   -0.000000  -34.318341

 Eigenvectors and eigenvalues of the dynamical matrix

   1 f  =   23.229570 THz   145.955692 2PiTHz  774.855024 cm-1    96.069813 meV
             X         Y         Z           dx          dy          dz
      1.601066  3.235121  4.852682            0           0           0
      4.803199  3.235121  4.852682            0           0           0
      1.601066  0.000000  1.617561            0           0           0
      4.803199  0.000000  1.617561            0           0           0
      0.000000  3.235121  1.617561            0           0           0
      3.202133  3.235121  1.617561            0           0           0
      0.000000  0.000000  4.852682            0           0           0
      3.202133  0.000000  4.852682            0           0           0
      1.563026  3.235121 11.438782            0           0           0
      4.810268  3.235121 11.267871            0           0           0
      1.602296  0.000000  8.062194            0           0           0
      4.829192  0.000000  8.091015            0           0           0
      0.029136  3.235121  8.125494            0           0           0
      3.212383  3.235121  8.077957            0           0           0
     12.746649  0.000000 11.232671            0           0           0
      3.197706  0.000000 11.241033            0           0           0
      0.000000  3.235121  3.613243            0           0           0
      3.202133  3.235121  3.613243            0           0           0
      0.000000  0.000000  0.378121            0           0           0
      3.202133  0.000000  0.378121            0           0           0
      1.601066  5.230803  4.852682            0           0           0
      4.803199  5.230803  4.852682            0           0           0
      1.601066  1.995682  1.617561            0           0           0
      4.803199  1.995682  1.617561            0           0           0
      0.000000  3.235121  6.092122            0           0           0
      3.202133  3.235121  6.092122            0           0           0
      0.000000  0.000000  2.857000            0           0           0
      3.202133  0.000000  2.857000            0           0           0
      1.601066  1.239440  4.852682            0           0           0
      4.803199  1.239440  4.852682            0           0           0
      1.601066  4.474561  1.617561            0           0           0
      4.803199  4.474561  1.617561            0           0           0
      0.236858  3.235121 10.038603            0           0           0
      3.190547  3.235121 10.050168            0           0           0
     12.800832  0.000000  6.840974            0           0           0
      3.211851  0.000000  6.843339            0           0           0
      1.591134  5.259446 11.417530            0           0           0
      4.802566  5.235241 11.311388            0           0           0
      1.618048  1.994249  8.029660            0           0           0
      4.813910  1.994005  8.086761            0           0           0
      0.517203  3.235121 12.883043            0           0           0
      3.240767  3.235121 12.451116            0           0           0
     12.799268  0.000000  9.295833            0           0           0
      3.207436  0.000000  9.297383            0           0           0
      1.591134  1.210797 11.417530            0           0           0
      4.802566  1.235002 11.311388            0           0           0
      1.618048  4.475994  8.029660            0           0           0
      4.813910  4.476238  8.086761            0           0           0
      8.005332  3.235121  4.852682            0           0           0
     11.207465  3.235121  4.852682            0           0           0
      8.005332  0.000000  1.617561            0           0           0
     11.207465  0.000000  1.617561            0           0           0
      6.404266  3.235121  1.617561            0           0           0
      9.606399  3.235121  1.617561            0           0           0
      6.404266  0.000000  4.852682            0           0           0
      9.606399  0.000000  4.852682            0           0           0
      8.045071  3.235121 11.402633            0           0           0
      8.011726  0.000000  8.101923            0           0           0
     11.185210  0.000000  8.093541            0           0           0
      6.405746  3.235121  8.074744            0           0           0
[...]
      9.606854  0.000000  6.850878            0           0           0
      8.021906  5.251187 11.284596            0           0           0
     11.210678  5.267752 11.338142            0           0           0
      7.996584  1.990043  8.035044            0           0           0
     11.207051  2.001430  8.124021            0           0           0
      6.386373  3.235121 12.434024            0           0           0
      9.086113  3.235121 12.853097            0           0           0
      6.412886  0.000000  9.342948            0           0           0
      9.612122  0.000000  9.356267            0           0           0
      8.021906  1.219056 11.284596            0           0           0
     11.210678  1.202491 11.338142            0           0           0
      7.996584  4.480200  8.035044            0           0           0
     11.207051  4.468813  8.124021            0           0           0
      9.553841  0.000000 13.260048     0.101865    0.000546   -0.958156
      6.434646  0.000000 13.232711    -0.006146    0.000259   -0.267438

[...]

   6 f  =    4.318614 THz    27.134650 2PiTHz  144.053442 cm-1    17.860357 meV
             X         Y         Z           dx          dy          dz
      1.601066  3.235121  4.852682            0           0           0
      4.803199  3.235121  4.852682            0           0           0
      1.601066  0.000000  1.617561            0           0           0
      4.803199  0.000000  1.617561            0           0           0
      0.000000  3.235121  1.617561            0           0           0
      3.202133  3.235121  1.617561            0           0           0
      0.000000  0.000000  4.852682            0           0           0
      3.202133  0.000000  4.852682            0           0           0
      1.563026  3.235121 11.438782            0           0           0
      4.810268  3.235121 11.267871            0           0           0
      1.602296  0.000000  8.062194            0           0           0
      4.829192  0.000000  8.091015            0           0           0
      0.029136  3.235121  8.125494            0           0           0
      3.212383  3.235121  8.077957            0           0           0
     12.746649  0.000000 11.232671            0           0           0
      3.197706  0.000000 11.241033            0           0           0
      0.000000  3.235121  3.613243            0           0           0
      3.202133  3.235121  3.613243            0           0           0
      0.000000  0.000000  0.378121            0           0           0
      3.202133  0.000000  0.378121            0           0           0
      1.601066  5.230803  4.852682            0           0           0
      4.803199  5.230803  4.852682            0           0           0
      1.601066  1.995682  1.617561            0           0           0
      4.803199  1.995682  1.617561            0           0           0
      0.000000  3.235121  6.092122            0           0           0
      3.202133  3.235121  6.092122            0           0           0
      0.000000  0.000000  2.857000            0           0           0
      3.202133  0.000000  2.857000            0           0           0
      1.601066  1.239440  4.852682            0           0           0
      4.803199  1.239440  4.852682            0           0           0
      1.601066  4.474561  1.617561            0           0           0
      4.803199  4.474561  1.617561            0           0           0
      0.236858  3.235121 10.038603            0           0           0
      3.190547  3.235121 10.050168            0           0           0
     12.800832  0.000000  6.840974            0           0           0
      3.211851  0.000000  6.843339            0           0           0
      1.591134  5.259446 11.417530            0           0           0
      4.802566  5.235241 11.311388            0           0           0
      1.618048  1.994249  8.029660            0           0           0
      4.813910  1.994005  8.086761            0           0           0
      0.517203  3.235121 12.883043            0           0           0
      3.240767  3.235121 12.451116            0           0           0
     12.799268  0.000000  9.295833            0           0           0
      3.207436  0.000000  9.297383            0           0           0
      1.591134  1.210797 11.417530            0           0           0
      4.802566  1.235002 11.311388            0           0           0
      1.618048  4.475994  8.029660            0           0           0
      4.813910  4.476238  8.086761            0           0           0
      8.005332  3.235121  4.852682            0           0           0
     11.207465  3.235121  4.852682            0           0           0
      8.005332  0.000000  1.617561            0           0           0
     11.207465  0.000000  1.617561            0           0           0
      6.404266  3.235121  1.617561            0           0           0
      9.606399  3.235121  1.617561            0           0           0
      6.404266  0.000000  4.852682            0           0           0
      9.606399  0.000000  4.852682            0           0           0
      8.045071  3.235121 11.402633            0           0           0
      8.011726  0.000000  8.101923            0           0           0
     11.185210  0.000000  8.093541            0           0           0
      6.405746  3.235121  8.074744            0           0           0
[...]
      9.606854  0.000000  6.850878            0           0           0
      8.021906  5.251187 11.284596            0           0           0
     11.210678  5.267752 11.338142            0           0           0
      7.996584  1.990043  8.035044            0           0           0
     11.207051  2.001430  8.124021            0           0           0
      6.386373  3.235121 12.434024            0           0           0
      9.086113  3.235121 12.853097            0           0           0
      6.412886  0.000000  9.342948            0           0           0
      9.612122  0.000000  9.356267            0           0           0
      8.021906  1.219056 11.284596            0           0           0
     11.210678  1.202491 11.338142            0           0           0
      7.996584  4.480200  8.035044            0           0           0
     11.207051  4.468813  8.124021            0           0           0
      9.553841  0.000000 13.260048    -0.008502   -0.999746   -0.001450
      6.434646  0.000000 13.232711    -0.000615    0.020798   -0.000050

 Finite differences POTIM=  1.500000000000000E-002
  LATTYP: Found a simple orthorhombic cell.
 ALAT       =     6.4702430000
 B/A-ratio  =     1.9796060210
 C/A-ratio  =     4.0000000000

  Lattice vectors:

 A1 = (   0.0000000000,  -6.4702430000,   0.0000000000)
 A2 = ( -12.8085320000,   0.0000000000,   0.0000000000)
 A3 = (   0.0000000000,   0.0000000000, -25.8809720000)

Analysis of symmetry for initial positions (statically):
 Subroutine PRICEL returns:
 Original cell was already a primitive cell.

[...]

The static configuration has the point symmetry C_1h.

Analysis of symmetry for dynamics (positions and initial velocities):
 Subroutine PRICEL returns:
 Original cell was already a primitive cell.

[...]

The dynamic configuration has the point symmetry C_1h.

Analysis of constrained symmetry for selective dynamics:
 Subroutine PRICEL returns:
 Original cell was already a primitive cell.

[...]

The constrained configuration has the point symmetry C_1h.

Analysis of structural, dynamic, and magnetic symmetry:
 Subroutine PRICEL returns:
 Original cell was already a primitive cell.

 Routine SETGRP: Setting up the symmetry group for a
 simple orthorhombic supercell.

 Subroutine GETGRP returns: Found  2 space group operations
 (whereof  2 operations were pure point group operations)
 out of a pool of  8 trial point group operations.

The magnetic configuration has the point symmetry C_1h.

 Subroutine INISYM returns: Found  2 space group operations
 (whereof  2 operations are pure point group operations),
 and found     1 'primitive' translations

 KPOINTS: Automatic mesh

Automatic generation of k-mesh.
Space group operators:
 irot       det(A)        alpha          n_x          n_y          n_z        tau_x        tau_y        tau_z
    1     1.000000     0.000001     1.000000     0.000000     0.000000     0.000000     0.000000     0.000000
    2    -1.000000   180.000000     0.000000     1.000000     0.000000     0.000000     0.000000     0.000000

 Subroutine IBZKPT returns following result:

 Found      4 irreducible k-points:

 Following reciprocal coordinates:
            Coordinates               Weight
  0.000000  0.000000  0.000000      1.000000
  0.333333  0.000000  0.000000      2.000000
  0.000000  0.333333  0.000000      2.000000
  0.333333  0.333333  0.000000      4.000000

 Following cartesian coordinates:
            Coordinates               Weight
  0.000000  0.000000  0.000000      1.000000
  0.026024  0.000000  0.000000      2.000000
  0.000000  0.051518  0.000000      2.000000
  0.026024  0.051518  0.000000      4.000000