 vasp.5.4.4.18Apr17-6-g9f103f2a35 (build Feb 25 2019 10:51:38) complex

 executed on             LinuxIFC date 2022.11.21  15:41:59

 INCAR:
 POTCAR:    PAW_PBE Ir 06Sep2000
 POTCAR:    PAW_PBE O 08Apr2002
 POTCAR:    PAW_PBE Ir 06Sep2000
 POTCAR:    PAW_PBE O 08Apr2002
 POTCAR:    PAW_PBE Ir 06Sep2000
   VRHFIN =Ir: s1d8

   TITEL  = PAW_PBE Ir 06Sep2000
   POMASS =  192.220; ZVAL   =    9.000    mass and valenz
   ENMAX  =  210.864; ENMIN  =  158.148 eV

 POTCAR:    PAW_PBE O 08Apr2002
   VRHFIN =O: s2p4

   TITEL  = PAW_PBE O 08Apr2002
   POMASS =   16.000; ZVAL   =    6.000    mass and valenz
   ENMAX  =  400.000; ENMIN  =  300.000 eV

 POTCAR:    PAW_PBE Ir 06Sep2000
   VRHFIN =Ir: s1d8

   TITEL  = PAW_PBE Ir 06Sep2000
   POMASS =  192.220; ZVAL   =    9.000    mass and valenz
   ENMAX  =  210.864; ENMIN  =  158.148 eV

 POTCAR:    PAW_PBE O 08Apr2002
   VRHFIN =O: s2p4

   TITEL  = PAW_PBE O 08Apr2002
   POMASS =   16.000; ZVAL   =    6.000    mass and valenz
   ENMAX  =  400.000; ENMIN  =  300.000 eV

 Optimization of the real space projectors (new method)

 maximal supplied QI-value         = 14.36
 optimisation between [QCUT,QGAM] = [ 11.35, 22.84] = [ 36.05,146.02] Ry
 Optimized for a Real-space Cutoff    1.52 Angstroem

   l    n(q)    QCUT    max X(q) W(low)/X(q) W(high)/X(q)  e(spline)
   2      9    11.346   134.116    0.47E-03    0.13E-03    0.92E-06
   2      9    11.346   130.192    0.47E-03    0.13E-03    0.92E-06
   0     10    11.346    60.310    0.74E-04    0.13E-03    0.69E-06
   0     10    11.346    39.218    0.68E-04    0.12E-03    0.65E-06
   1     10    11.346    18.439    0.15E-03    0.34E-04    0.20E-06
   1     10    11.346    12.760    0.12E-03    0.31E-04    0.16E-06
 Optimization of the real space projectors (new method)

[...]

   l    n(q)    QCUT    max X(q) W(low)/X(q) W(high)/X(q)  e(spline)
   2      9    11.346   134.116    0.47E-03    0.13E-03    0.92E-06
   2      9    11.346   130.192    0.47E-03    0.13E-03    0.92E-06
   0     10    11.346    60.310    0.74E-04    0.13E-03    0.69E-06
   0     10    11.346    39.218    0.68E-04    0.12E-03    0.65E-06
   1     10    11.346    18.439    0.15E-03    0.34E-04    0.20E-06
   1     10    11.346    12.760    0.12E-03    0.31E-04    0.16E-06
 Optimization of the real space projectors (new method)

 maximal supplied QI-value         = 24.76
 optimisation between [QCUT,QGAM] = [ 11.39, 22.77] = [ 36.31,145.25] Ry
 Optimized for a Real-space Cutoff    1.00 Angstroem

   l    n(q)    QCUT    max X(q) W(low)/X(q) W(high)/X(q)  e(spline)
   0      7    11.387    20.381    0.39E-03    0.13E-02    0.15E-06
   0      7    11.387    15.268    0.42E-03    0.14E-02    0.17E-06
   1      6    11.387     5.964    0.41E-03    0.11E-02    0.17E-06
   1      6    11.387     5.382    0.39E-03    0.87E-03    0.15E-06

  PAW_PBE Ir 06Sep2000                  :
  PAW_PBE O 08Apr2002                   :
  PAW_PBE Ir 06Sep2000                  :
  PAW_PBE O 08Apr2002                   :

 POSCAR: Ir  O Ir  O
  positions in cartesian coordinates
 exchange correlation table for  LEXCH =        9
   RHO(1)=    0.500       N(1)  =     2000
   RHO(2)=  100.500       N(2)  =     4000

 VTST: version 3.2, (02/03/18)

 CHAIN: initializing optimizer

 OPT: Using VASP QUASI-newton optimizer
 CHAIN: Read ICHAIN            0
 CHAIN: Running the NEB
 NEB:          SPRING     -5.000000
 NEB:          LCLIMB      T
 NEB:     LTANGENTOLD      F
 NEB:           LDNEB      F
 NEB:        LDNEBORG      F
 NEB:        LNEBCELL      F
 NEB:          EFIRST      0.000000
 NEB:           ELAST      0.000000

 POSCAR: Ir  O Ir  O
  positions in cartesian coordinates

 POSCAR: Ir  O Ir  O
  positions in cartesian coordinates

 ion  position               nearest neighbor table
   1  0.125  0.500  0.188-  21 2.00  29 2.00  17 2.02  25 2.02  26 2.02  18 2.02   2 3.20  52 3.20

   2  0.375  0.500  0.188-  22 2.00  30 2.00  26 2.02  18 2.02  67 2.02  75 2.02   1 3.20  51 3.20

[...]

  67  0.500  0.500  0.140-  55 2.00  51 2.02   2 2.02
  68  0.750  0.500  0.140-  56 2.00  52 2.02  51 2.02
  69  0.500  0.000  0.015-   4 2.02  53 2.02
  70  0.750  0.000  0.015-  53 2.02  54 2.02
  71  0.625  0.808  0.188-  51 2.00  57 2.02  58 2.02
  72  0.875  0.808  0.188-  52 2.00   7 2.02  58 2.02
  73  0.625  0.308  0.062-  53 2.00  55 2.02  56 2.02
  74  0.875  0.308  0.062-  54 2.00   5 2.02  56 2.02
  75  0.500  0.500  0.235-  63 2.00  51 2.02   2 2.02
  76  0.750  0.500  0.235-  64 2.00  52 2.02  51 2.02
  77  0.500  0.000  0.110-  57 2.00  53 2.02   4 2.02
  78  0.750  0.000  0.110-  58 2.00  54 2.02  53 2.02
  79  0.625  0.192  0.188-  51 2.00  57 2.02  58 2.02
  80  0.875  0.192  0.188-  52 2.00   7 2.02  58 2.02
  81  0.625  0.692  0.062-  53 2.00  55 2.02  56 2.02
  82  0.875  0.692  0.062-  54 2.00   5 2.02  56 2.02
  83  0.499  0.500  0.389-  63 1.98  59 2.03  10 2.04
  84  0.751  0.500  0.389-  64 1.98  59 2.03  60 2.04
  85  0.500  0.000  0.265-  57 2.00  61 2.03  12 2.03
  86  0.750  0.000  0.265-  58 2.00  61 2.03  62 2.03
  87  0.625  0.806  0.432-  59 1.98  66 2.01  65 2.01
  88  0.873  0.809  0.438-  60 2.00  15 2.04  66 2.04
  89  0.625  0.308  0.312-  61 1.99  63 2.03  64 2.03
  90  0.875  0.308  0.312-  62 1.99  13 2.02  64 2.03
  91  0.502  0.500  0.483-  59 1.98  10 1.99
  92  0.749  0.500  0.483-  59 1.99  60 1.99
  93  0.498  0.000  0.361-  12 2.01  61 2.04  65 2.05
  94  0.752  0.000  0.360-  62 2.01  61 2.04  66 2.05
  95  0.625  0.194  0.432-  59 1.98  66 2.01  65 2.01
  96  0.873  0.191  0.438-  60 2.00  15 2.04  66 2.04
  97  0.625  0.692  0.312-  61 1.99  63 2.03  64 2.03
  98  0.875  0.692  0.312-  62 1.99  13 2.02  64 2.03
  99  0.715  0.000  0.511-  66 1.88
 100  0.536  0.000  0.510-  65 1.88

  LATTYP: Found a simple orthorhombic cell.
 ALAT       =     6.4702430000
 B/A-ratio  =     1.9796060210
 C/A-ratio  =     4.0000000000

  Lattice vectors:

 A1 = (   0.0000000000,  -6.4702430000,   0.0000000000)
 A2 = ( -12.8085320000,   0.0000000000,   0.0000000000)
 A3 = (   0.0000000000,   0.0000000000, -25.8809720000)

Analysis of symmetry for initial positions (statically):
 Subroutine PRICEL returns:
 Original cell was already a primitive cell.

 Routine SETGRP: Setting up the symmetry group for a
 simple orthorhombic supercell.

 Subroutine GETGRP returns: Found  2 space group operations
 (whereof  2 operations were pure point group operations)
 out of a pool of  8 trial point group operations.

The static configuration has the point symmetry C_1h.

Analysis of symmetry for dynamics (positions and initial velocities):
 Subroutine PRICEL returns:
 Original cell was already a primitive cell.

[...]

The dynamic configuration has the point symmetry C_1h.

Analysis of constrained symmetry for selective dynamics:
 Subroutine PRICEL returns:
 Original cell was already a primitive cell.

[...]

The constrained configuration has the point symmetry C_1h.

Analysis of structural, dynamic, and magnetic symmetry:
 Subroutine PRICEL returns:
 Original cell was already a primitive cell.

 Routine SETGRP: Setting up the symmetry group for a
 simple orthorhombic supercell.

 Subroutine GETGRP returns: Found  2 space group operations
 (whereof  2 operations were pure point group operations)
 out of a pool of  8 trial point group operations.

The magnetic configuration has the point symmetry C_1h.

 Subroutine INISYM returns: Found  2 space group operations
 (whereof  2 operations are pure point group operations),
 and found     1 'primitive' translations

 KPOINTS: Automatic mesh

Automatic generation of k-mesh.
Space group operators:
 irot       det(A)        alpha          n_x          n_y          n_z        tau_x        tau_y        tau_z
    1     1.000000     0.000001     1.000000     0.000000     0.000000     0.000000     0.000000     0.000000
    2    -1.000000   180.000000     0.000000     1.000000     0.000000     0.000000     0.000000     0.000000

 Subroutine IBZKPT returns following result:

 Found      4 irreducible k-points:

 Following reciprocal coordinates:
            Coordinates               Weight
  0.000000  0.000000  0.000000      1.000000
  0.333333  0.000000  0.000000      2.000000
  0.000000  0.333333  0.000000      2.000000
  0.333333  0.333333  0.000000      4.000000

 Following cartesian coordinates:
            Coordinates               Weight
  0.000000  0.000000  0.000000      1.000000
  0.026024  0.000000  0.000000      2.000000
  0.000000  0.051518  0.000000      2.000000
  0.026024  0.051518  0.000000      4.000000

 SYSTEM =  unknown system
 POSCAR =  Ir  O Ir  O

 Startparameter for this run:
   NWRITE =      2    write-flag & timer
   PREC   = normal    normal or accurate (medium, high low for compatibility)
   ISTART =      0    job   : 0-new  1-cont  2-samecut
   ICHARG =      2    charge: 1-file 2-atom 10-const
   ISPIN  =      2    spin polarized calculation?
   LNONCOLLINEAR =      F non collinear calculations
   LSORBIT =      F    spin-orbit coupling
   INIWAV =      1    electr: 0-lowe 1-rand  2-diag
   LASPH  =      F    aspherical Exc in radial PAW
   METAGGA=      F    non-selfconsistent MetaGGA calc.

 Electronic Relaxation 1
   ENCUT  =  500.0 eV  36.75 Ry    6.06 a.u.  23.35 11.80 47.19*2*pi/ulx,y,z
   ENINI  =  500.0     initial cutoff
   ENAUG  =  605.4 eV  augmentation charge cutoff
   NELM   =     60;   NELMIN=  4; NELMDL= -5     # of ELM steps
   EDIFF  = 0.1E-04   stopping-criterion for ELM
   LREAL  =      T    real-space projection
   NLSPLINE    = F    spline interpolate recip. space projectors
   LCOMPAT=      F    compatible to vasp.4.4
   GGA_COMPAT  = T    GGA compatible to vasp.4.4-vasp.4.6
   LMAXPAW     = -100 max onsite density
   LMAXMIX     =    2 max onsite mixed and CHGCAR
   VOSKOWN=      0    Vosko Wilk Nusair interpolation
   ROPT   =   -0.00050  -0.00050  -0.00050  -0.00050
 Ionic relaxation
   EDIFFG = -.5E-01   stopping-criterion for IOM
   NSW    =    500    number of steps for IOM
   NBLOCK =      1;   KBLOCK =    500    inner block; outer block
   IBRION =      1    ionic relax: 0-MD 1-quasi-New 2-CG
   NFREE  =      0    steps in history (QN), initial steepest desc. (CG)
   ISIF   =      2    stress and relaxation
   IWAVPR =     11    prediction:  0-non 1-charg 2-wave 3-comb
   ISYM   =      2    0-nonsym 1-usesym 2-fastsym
   LCORR  =      T    Harris-Foulkes like correction to forces

   POTIM  = 0.5000    time-step for ionic-motion
   TEIN   =    0.0    initial temperature
   TEBEG  =    0.0;   TEEND  =   0.0 temperature during run
   SMASS  =  -3.00    Nose mass-parameter (am)
   estimated Nose-frequenzy (Omega)   =  0.10E-29 period in steps =****** mass=  -0.375E-26a.u.
   SCALEE = 1.0000    scale energy and forces
   NPACO  =    256;   APACO  = 16.0  distance and # of slots for P.C.
   PSTRESS=    0.0 pullay stress

  Mass of Ions in am
   POMASS = 192.22 16.00192.22 16.00
  Ionic Valenz
   ZVAL   =   9.00  6.00  9.00  6.00
  Atomic Wigner-Seitz radii
  virtual crystal weights
   VCA    =   1.00  1.00  1.00  1.00
   NELECT =     696.0000    total number of electrons
   NUPDOWN=      -1.0000    fix difference up-down

 DOS related values:
[...]
   0.435E+00 0.361E+01 0.167E+04   -.421E+00 -.173E+01 -.167E+04   0.497E-01 -.180E+01 -.474E+00   -.109E-01 -.523E-02 0.436E-01
   0.143E+01 0.897E-12 -.108E+04   -.170E+01 0.287E-12 0.108E+04   0.265E+00 0.000E+00 -.748E+00   0.582E-02 0.178E-12 -.642E-01
   0.257E+00 0.910E-12 -.108E+04   -.114E+00 0.445E-13 0.108E+04   -.148E+00 0.000E+00 -.848E+00   -.210E-02 -.576E-13 -.612E-01
   -.398E+01 0.384E-12 -.188E+02   0.409E+01 -.189E-11 0.168E+02   -.109E+00 0.000E+00 0.193E+01   0.125E-01 0.205E-11 0.461E-02
   0.395E+01 0.178E-12 -.188E+02   -.403E+01 -.690E-13 0.170E+02   0.687E-01 0.000E+00 0.182E+01   0.292E-03 0.125E-12 0.592E-02
   -.204E+00 0.399E+02 -.148E+04   0.213E+00 -.420E+02 0.148E+04   -.203E-01 0.205E+01 0.407E+01   0.255E-02 0.118E-01 -.461E-01
   0.104E+02 0.357E+02 -.153E+04   -.104E+02 -.378E+02 0.153E+04   -.182E-01 0.216E+01 0.821E-01   -.178E-02 0.128E-01 -.483E-01
   -.374E+00 0.315E+02 -.458E+03   0.443E+00 -.332E+02 0.458E+03   -.788E-01 0.164E+01 0.133E+00   0.445E-02 -.165E-02 -.323E-01
   0.778E+01 0.314E+02 -.452E+03   -.778E+01 -.330E+02 0.452E+03   0.776E-03 0.160E+01 0.252E+00   -.124E-01 -.142E-03 -.224E-01
   -.501E+00 0.895E-12 -.198E+04   0.664E+00 0.667E-13 0.201E+04   -.178E+00 0.000E+00 -.293E+02   0.453E-02 -.265E-12 -.221E-01
   0.646E+00 0.563E-12 -.198E+04   -.818E+00 0.223E-13 0.201E+04   0.179E+00 0.000E+00 -.293E+02   -.315E-03 0.272E-12 -.278E-01
   0.280E-01 -.415E-12 -.912E+03   0.302E+00 -.183E-11 0.919E+03   -.354E+00 0.000E+00 -.696E+01   0.108E-01 0.444E-12 -.551E-01
   0.100E+01 -.147E-12 -.912E+03   -.133E+01 -.517E-13 0.919E+03   0.325E+00 0.000E+00 -.695E+01   -.146E-02 0.876E-13 -.517E-01
   -.204E+00 -.399E+02 -.148E+04   0.213E+00 0.420E+02 0.148E+04   -.203E-01 -.205E+01 0.407E+01   0.255E-02 -.118E-01 -.461E-01
   0.104E+02 -.357E+02 -.153E+04   -.104E+02 0.378E+02 0.153E+04   -.182E-01 -.216E+01 0.821E-01   -.178E-02 -.128E-01 -.483E-01
   -.374E+00 -.315E+02 -.458E+03   0.443E+00 0.332E+02 0.458E+03   -.788E-01 -.164E+01 0.133E+00   0.445E-02 0.165E-02 -.323E-01
   0.778E+01 -.314E+02 -.452E+03   -.778E+01 0.330E+02 0.452E+03   0.776E-03 -.160E+01 0.252E+00   -.124E-01 0.142E-03 -.224E-01
   -.753E+01 -.465E-12 -.204E+04   0.680E+01 -.120E-13 0.208E+04   0.725E+00 0.000E+00 -.319E+02   -.286E-03 -.908E-13 -.354E-01
   0.687E+01 0.554E-12 -.204E+04   -.603E+01 -.301E-13 0.208E+04   -.822E+00 0.000E+00 -.320E+02   -.559E-02 0.799E-14 -.353E-01
   -.132E+00 0.385E-13 0.913E+03   0.140E+00 0.235E-13 -.913E+03   -.130E-01 0.000E+00 -.752E+00   -.395E-02 0.696E-12 0.701E-01
   -.305E+01 -.970E-12 0.910E+03   0.304E+01 0.220E-12 -.910E+03   0.969E-03 0.000E+00 -.746E+00   0.204E-01 -.513E-11 0.697E-01
   -.291E-02 -.780E-13 0.245E+04   0.766E-02 -.929E-13 -.245E+04   -.136E-01 0.000E+00 0.146E+01   -.228E-02 -.214E-11 0.606E-01
   -.650E+00 0.284E-13 0.245E+04   0.628E+00 -.983E-13 -.245E+04   0.167E-01 0.000E+00 0.145E+01   0.148E-01 -.807E-12 0.642E-01
   0.455E+00 -.234E-11 0.260E+04   -.443E+00 0.508E-14 -.259E+04   0.155E-02 0.000E+00 -.263E+01   -.126E-01 0.208E-11 0.626E-01
   -.465E+00 -.930E-12 0.260E+04   0.456E+00 0.813E-13 -.259E+04   -.195E-02 0.000E+00 -.262E+01   0.929E-02 0.163E-11 0.611E-01
   0.213E+01 -.496E-13 0.905E+03   -.210E+01 -.915E-14 -.905E+03   0.129E-01 0.000E+00 0.149E+00   -.158E-01 -.146E-11 0.701E-01
   -.228E+01 0.230E-14 0.905E+03   0.226E+01 -.325E-12 -.906E+03   -.216E-01 0.000E+00 0.122E+00   0.105E-01 0.239E-11 0.711E-01
   -.951E+00 0.137E-11 -.228E+04   0.965E+00 0.853E-13 0.228E+04   -.160E-01 0.000E+00 -.218E+01   -.525E-02 -.116E-11 -.747E-01
   -.149E+02 -.190E-11 -.229E+04   0.150E+02 0.317E-12 0.230E+04   -.582E-01 0.000E+00 -.223E+01   0.570E-02 -.918E-12 -.551E-01
[...]
   -.756E+00 0.537E+02 -.141E+04   0.796E+00 -.561E+02 0.140E+04   -.521E-01 0.238E+01 0.960E+01   0.528E-02 0.909E-02 -.307E-01
   -.970E+01 0.360E+02 -.153E+04   0.968E+01 -.382E+02 0.153E+04   0.627E-01 0.221E+01 -.301E+00   0.869E-02 0.139E-01 -.397E-01
   -.120E+01 0.305E+02 -.439E+03   0.129E+01 -.321E+02 0.439E+03   -.929E-01 0.162E+01 0.354E+00   -.171E-02 -.126E-03 -.177E-01
   -.636E+01 0.315E+02 -.452E+03   0.627E+01 -.331E+02 0.452E+03   0.851E-01 0.162E+01 0.347E+00   0.731E-02 -.871E-03 -.229E-01
   0.940E+01 0.196E-11 -.198E+04   -.897E+01 0.266E-13 0.201E+04   -.407E+00 0.000E+00 -.295E+02   -.126E-01 -.430E-12 -.132E-01
   -.964E+01 0.340E-11 -.198E+04   0.927E+01 0.509E-13 0.201E+04   0.333E+00 0.000E+00 -.294E+02   0.207E-01 0.579E-14 -.167E-01
   0.185E+02 0.235E-12 -.891E+03   -.176E+02 -.395E-13 0.898E+03   -.812E+00 0.000E+00 -.658E+01   -.583E-02 -.527E-13 -.234E-01
   -.197E+02 0.436E-14 -.891E+03   0.189E+02 -.189E-11 0.897E+03   0.746E+00 0.000E+00 -.652E+01   0.640E-02 0.889E-12 -.244E-01
   -.756E+00 -.537E+02 -.141E+04   0.796E+00 0.561E+02 0.140E+04   -.521E-01 -.238E+01 0.960E+01   0.528E-02 -.909E-02 -.307E-01
   -.970E+01 -.360E+02 -.153E+04   0.968E+01 0.382E+02 0.153E+04   0.627E-01 -.221E+01 -.301E+00   0.869E-02 -.139E-01 -.397E-01
   -.120E+01 -.305E+02 -.439E+03   0.129E+01 0.321E+02 0.439E+03   -.929E-01 -.162E+01 0.354E+00   -.171E-02 0.126E-03 -.177E-01
   -.636E+01 -.315E+02 -.452E+03   0.627E+01 0.331E+02 0.452E+03   0.851E-01 -.162E+01 0.347E+00   0.731E-02 0.871E-03 -.229E-01
   -.388E+02 0.470E-12 -.205E+04   0.327E+02 -.258E-13 0.208E+04   0.717E+01 0.000E+00 -.311E+02   0.777E-04 0.481E-12 0.107E-02
   0.389E+02 0.154E-12 -.205E+04   -.326E+02 0.150E-13 0.208E+04   -.737E+01 0.000E+00 -.311E+02   0.464E-02 0.411E-12 0.372E-02
   0.438E+00 0.756E-10 0.172E+03   0.347E-11 0.146E-12 0.136E-11   -.742E+00 -.222E-15 -.173E+03   0.138E-01 -.201E-11 0.650E+00

 POSITION                                       TOTAL-FORCE (eV/Angst)
      1.60107      3.23512      4.85268        -0.005933      0.000000     -0.313435
      4.80320      3.23512      4.85268         0.012276      0.000000     -0.316405
      1.60107      0.00000      1.61756        -0.009147      0.000000     -0.949386
      4.80320      0.00000      1.61756         0.013214      0.000000     -0.948244
      0.00000      3.23512      1.61756        -0.000131      0.000000      1.569994
      3.20213      3.23512      1.61756         0.006298      0.000000      1.582702
      0.00000      0.00000      4.85268         0.053923      0.000000     -0.056579
      3.20213      0.00000      4.85268        -0.063033      0.000000     -0.069313
      1.60080      3.23512     11.34153         0.000503      0.000000      0.004957
      4.80884      3.23512     11.35268         0.000799      0.000000     -0.014638
      1.59969     -0.00000      8.10926        -0.004553      0.000000      0.000851
      4.79569     -0.00000      8.09458         0.002407      0.000000     -0.003537
      0.00071      3.23512      8.10403        -0.004129      0.000000      0.002923
      3.20069      3.23512      8.10368         0.005730      0.000000      0.001955
     12.79988     -0.00000     11.44923         0.016932      0.000000      0.021110
      3.20674     -0.00000     11.44966        -0.020866      0.000000      0.012149
      0.00000      3.23512      3.61324         0.002132      0.000000     -0.099410
      3.20213      3.23512      3.61324         0.001342      0.000000     -0.105247
      0.00000      0.00000      0.37812         0.002065      0.000000      0.830635
      3.20213      0.00000      0.37812         0.004797      0.000000      0.821492
      1.60107      5.23080      4.85268        -0.051496     -0.031090     -0.043727
      4.80320      5.23080      4.85268         0.055219     -0.026032     -0.029271
      1.60107      1.99568      1.61756        -0.050600     -0.077959     -0.670661
      4.80320      1.99568      1.61756         0.055758     -0.078225     -0.670126
      0.00000      3.23512      6.09212         0.031416      0.000000      0.363840
      3.20213      3.23512      6.09212        -0.028458      0.000000      0.367439
      0.00000      0.00000      2.85700        -0.007431      0.000000      0.193451
      3.20213      0.00000      2.85700         0.018253      0.000000      0.196904
      1.60107      1.23944      4.85268        -0.051496      0.031090     -0.043727
      4.80320      1.23944      4.85268         0.055219      0.026032     -0.029271
      1.60107      4.47456      1.61756        -0.050600      0.077959     -0.670661
      4.80320      4.47456      1.61756         0.055758      0.078225     -0.670126
     12.80356      3.23512     10.09292         0.002037      0.000000     -0.013658
      3.20803      3.23512     10.08982        -0.004310      0.000000     -0.004043
      0.00460     -0.00000      6.85746         0.019213      0.000000      0.003660
      3.19419     -0.00000      6.85591        -0.006688      0.000000      0.010431
      1.59838      5.23574     11.28891        -0.006197      0.001823     -0.006598
      4.83042      5.23893     11.37636        -0.050493     -0.006911     -0.068308
      1.59864      1.99052      8.09982        -0.002276     -0.006403      0.007767
      4.80083      1.99012      8.08695        -0.005414     -0.006936      0.002918
      0.00284      3.23512     12.52497        -0.007251      0.000000     -0.001503
      3.19988      3.23512     12.52619         0.009256      0.000000     -0.002392
     12.79819     -0.00000      9.35773        -0.010714      0.000000     -0.011522
      3.20949     -0.00000      9.35805        -0.002280      0.000000      0.000512
      1.59838      1.23451     11.28891        -0.006197     -0.001823     -0.006598
      4.83042      1.23131     11.37636        -0.050493      0.006911     -0.068308
      1.59864      4.47972      8.09982        -0.002276      0.006403      0.007767
      4.80083      4.48012      8.08695        -0.005414      0.006936      0.002918
      3.16708     -0.00000     13.24624         0.005865      0.000000     -0.004368
      0.03746     -0.00000     13.24443         0.018077      0.000000      0.019757
      8.00533      3.23512      4.85268        -0.005832      0.000000     -0.333566
     11.20747      3.23512      4.85268         0.016687      0.000000     -0.312658
      8.00533      0.00000      1.61756        -0.008235      0.000000     -0.947353
     11.20747      0.00000      1.61756         0.013001      0.000000     -0.948636
      6.40427      3.23512      1.61756         0.004471      0.000000      1.569249
      9.60640      3.23512      1.61756         0.000987      0.000000      1.580906
      6.40427      0.00000      4.85268         0.026615      0.000000     -0.079985
      9.60640      0.00000      4.85268        -0.033179      0.000000     -0.105669
      8.00356      3.23512     11.29369        -0.003737      0.000000     -0.005445
     11.19997      3.23512     11.35559        -0.006970      0.000000     -0.009407
[...]
      9.60449     -0.00000      6.85368         0.012954      0.000000     -0.017821
      8.00188      5.22061     11.11359        -0.003975      0.045979      0.133847
     11.17742      5.23899     11.38522         0.046524     -0.008421     -0.052367
      8.00196      1.99238      8.08141        -0.002869      0.000793     -0.001421
     11.21192      1.99105      8.08473        -0.001922     -0.005874      0.002215
      6.43512      3.23512     12.49972         0.008854      0.000000     -0.008797
      9.56962      3.23512     12.50342        -0.011787      0.000000     -0.002496
      6.37707     -0.00000      9.33246         0.056051      0.000000     -0.051795
      9.62911     -0.00000      9.33090        -0.054852      0.000000     -0.054849
      8.00188      1.24963     11.11359        -0.003975     -0.045979      0.133847
     11.17742      1.23126     11.38522         0.046524      0.008421     -0.052367
      8.00196      4.47786      8.08141        -0.002869     -0.000793     -0.001421
     11.21192      4.47919      8.08473        -0.001922      0.005874      0.002215
      9.17703     -0.00000     13.16200         1.019132      0.000000      0.085282
      6.83804     -0.00000     13.16166        -1.052683      0.000000      0.067088
    total drift:                               -0.289752      0.000000      0.022724

  FREE ENERGIE OF THE ION-ELECTRON SYSTEM (eV)
  free  energy   TOTEN  =      -637.53884585 eV

  energy  without entropy=     -637.47534121  energy(sigma->0) =     -637.50709353

 d Force = 0.1447576E-02[ 0.140E-02, 0.149E-02]  d Energy = 0.1448184E-02-0.608E-06
 d Force =-0.6675384E+01[-0.667E+01,-0.668E+01]  d Ewald  =-0.6675385E+01 0.167E-05

 NEB: the previous image is higher in energy: F
 NEB: the next image is higher in energy    : T
 NEB: only next energy greater

 NEB: Tangent
      0.00000      0.00000      0.00000
      0.00000      0.00000      0.00000
      0.00000      0.00000      0.00000
      0.00000      0.00000      0.00000
      0.00000      0.00000      0.00000
      0.00000      0.00000      0.00000
      0.00000      0.00000      0.00000
      0.00000      0.00000      0.00000
     -0.00078      0.00000     -0.00186
     -0.00241      0.00000      0.00971
      0.00012      0.00000      0.00140
     -0.00313      0.00000     -0.00301
      0.00214      0.00000     -0.00140
     -0.00166      0.00000     -0.00053
     -0.01452      0.00000     -0.00162
      0.01185      0.00000     -0.00061
      0.00000      0.00000      0.00000
      0.00000      0.00000      0.00000
      0.00000      0.00000      0.00000
      0.00000      0.00000      0.00000
      0.00000      0.00000      0.00000
      0.00000      0.00000      0.00000
      0.00000      0.00000      0.00000
      0.00000      0.00000      0.00000
      0.00000      0.00000      0.00000
      0.00000      0.00000      0.00000
      0.00000      0.00000      0.00000
      0.00000      0.00000      0.00000
      0.00000      0.00000      0.00000
      0.00000      0.00000      0.00000
      0.00000      0.00000      0.00000
      0.00000      0.00000      0.00000
     -0.00325      0.00000      0.00062
      0.00334      0.00000      0.00208
      0.00016      0.00000     -0.00249
      0.00023      0.00000     -0.00291
     -0.00202      0.00330      0.01268
      0.02807      0.00211      0.04777
     -0.00013      0.00044      0.00283
     -0.00275      0.00466     -0.00346
     -0.00154      0.00000      0.00553
     -0.00015      0.00000      0.00740
      0.00177      0.00000     -0.00066
     -0.00085      0.00000      0.00160
     -0.00202     -0.00330      0.01268
      0.02807     -0.00211      0.04777
     -0.00013     -0.00044      0.00283
     -0.00275     -0.00466     -0.00346
      0.00053      0.00000      0.00210
     -0.00214      0.00000     -0.00066
      0.00000      0.00000      0.00000
      0.00000      0.00000      0.00000
      0.00000      0.00000      0.00000
      0.00000      0.00000      0.00000
      0.00000      0.00000      0.00000
      0.00000      0.00000      0.00000
      0.00000      0.00000      0.00000
      0.00000      0.00000      0.00000
     -0.00136      0.00000     -0.00496
     -0.00022      0.00000      0.00612
[...]
     -0.00406      0.00000      0.00593
      0.00233     -0.02894     -0.10769
     -0.03113      0.00341      0.02947
     -0.00091      0.00292     -0.00232
      0.00345      0.00398     -0.00116
      0.00098      0.00000     -0.00031
     -0.00287      0.00000     -0.00150
     -0.04311      0.00000      0.01934
      0.03591      0.00000      0.02080
      0.00233      0.02894     -0.10769
     -0.03113     -0.00341      0.02947
     -0.00091     -0.00292     -0.00232
      0.00345     -0.00398     -0.00116
     -0.67935      0.00000     -0.07316
      0.69223      0.00000     -0.06376

 NEB: forces: par spring, perp REAL, dneb     0.009787    0.108137    0.000000
 NEB: distance to prev, next image, angle between     0.234539    0.232581  168.618840
 NEB: projections on to tangent (spring, REAL)    -0.009787   -1.502874

 stress matrix after NEB project (eV)
    -22.05188      0.00000      0.00967
      0.00000     -7.56331      0.00000
      0.00967      0.00000     -6.83721
  FORCES: max atom, RMS     0.033997    0.010858
  FORCE total and by dimension    0.108579    0.028797
  Stress total and by dimension   24.294792   22.051885
 Quasi-Newton relaxation of ions (Broydens 2nd method)
  g(Force)  = 0.232E-02   g(Stress)= 0.000E+00

 retain information from N= 10 steps
 eigenvalues of (default step * inverse Hessian matrix)
  average eigenvalue of G=   2.3254
 eigenvalue spectrum of G is  7.6994  7.6994  1.8815  1.8815  0.8975  0.8975  0.5983  0.5983  0.5504  0.5504

 reached required accuracy - stopping structural energy minimisation