 vasp.5.4.4.18Apr17-6-g9f103f2a35 (build Feb 25 2019 10:51:38) complex

 executed on             LinuxIFC date 2022.11.22  08:59:08

 INCAR:
 POTCAR:    PAW_PBE Ir 06Sep2000
 POTCAR:    PAW_PBE O 08Apr2002
 POTCAR:    PAW_PBE Ir 06Sep2000
 POTCAR:    PAW_PBE O 08Apr2002

 POTCAR:    PAW_PBE Ir 06Sep2000
   VRHFIN =Ir: s1d8

   TITEL  = PAW_PBE Ir 06Sep2000
   POMASS =  192.220; ZVAL   =    9.000    mass and valenz
   ENMAX  =  210.864; ENMIN  =  158.148 eV

 POTCAR:    PAW_PBE O 08Apr2002
   VRHFIN =O: s2p4

   TITEL  = PAW_PBE O 08Apr2002
   POMASS =   16.000; ZVAL   =    6.000    mass and valenz
   ENMAX  =  400.000; ENMIN  =  300.000 eV

 POTCAR:    PAW_PBE Ir 06Sep2000
   VRHFIN =Ir: s1d8

   TITEL  = PAW_PBE Ir 06Sep2000
   POMASS =  192.220; ZVAL   =    9.000    mass and valenz
   ENMAX  =  210.864; ENMIN  =  158.148 eV

 POTCAR:    PAW_PBE O 08Apr2002
   VRHFIN =O: s2p4

   TITEL  = PAW_PBE O 08Apr2002
   POMASS =   16.000; ZVAL   =    6.000    mass and valenz
   ENMAX  =  400.000; ENMIN  =  300.000 eV

 Optimization of the real space projectors (new method)

 maximal supplied QI-value         = 14.36
 optimisation between [QCUT,QGAM] = [ 11.35, 22.84] = [ 36.05,146.02] Ry
 Optimized for a Real-space Cutoff    1.52 Angstroem

   l    n(q)    QCUT    max X(q) W(low)/X(q) W(high)/X(q)  e(spline)
   2      9    11.346   134.116    0.47E-03    0.13E-03    0.92E-06
   2      9    11.346   130.192    0.47E-03    0.13E-03    0.92E-06
   0     10    11.346    60.310    0.74E-04    0.13E-03    0.69E-06
   0     10    11.346    39.218    0.68E-04    0.12E-03    0.65E-06
   1     10    11.346    18.439    0.15E-03    0.34E-04    0.20E-06
   1     10    11.346    12.760    0.12E-03    0.31E-04    0.16E-06
 Optimization of the real space projectors (new method)

[...]

   l    n(q)    QCUT    max X(q) W(low)/X(q) W(high)/X(q)  e(spline)
   2      9    11.346   134.116    0.47E-03    0.13E-03    0.92E-06
   2      9    11.346   130.192    0.47E-03    0.13E-03    0.92E-06
   0     10    11.346    60.310    0.74E-04    0.13E-03    0.69E-06
   0     10    11.346    39.218    0.68E-04    0.12E-03    0.65E-06
   1     10    11.346    18.439    0.15E-03    0.34E-04    0.20E-06
   1     10    11.346    12.760    0.12E-03    0.31E-04    0.16E-06
 Optimization of the real space projectors (new method)

 maximal supplied QI-value         = 24.76
 optimisation between [QCUT,QGAM] = [ 11.39, 22.77] = [ 36.31,145.25] Ry
 Optimized for a Real-space Cutoff    1.00 Angstroem

   l    n(q)    QCUT    max X(q) W(low)/X(q) W(high)/X(q)  e(spline)
   0      7    11.387    20.381    0.39E-03    0.13E-02    0.15E-06
   0      7    11.387    15.268    0.42E-03    0.14E-02    0.17E-06
   1      6    11.387     5.964    0.41E-03    0.11E-02    0.17E-06
   1      6    11.387     5.382    0.39E-03    0.87E-03    0.15E-06

  PAW_PBE Ir 06Sep2000                  :
  PAW_PBE O 08Apr2002                   :
  PAW_PBE Ir 06Sep2000                  :
  PAW_PBE O 08Apr2002                   :

 POSCAR: Ir  O Ir  O
  positions in cartesian coordinates
 exchange correlation table for  LEXCH =        9
   RHO(1)=    0.500       N(1)  =     2000
   RHO(2)=  100.500       N(2)  =     4000

 VTST: version 3.2, (02/03/18)

 CHAIN: initializing optimizer

 OPT: Using VASP Dynamics algorithm
 CHAIN: Read ICHAIN            0

 POSCAR: Ir  O Ir  O
  positions in cartesian coordinates

 ion  position               nearest neighbor table
   1  0.125  0.500  0.188-  21 2.00  29 2.00  17 2.02  25 2.02  26 2.02  18 2.02   2 3.20  50 3.20

   2  0.375  0.500  0.188-  22 2.00  30 2.00  26 2.02  18 2.02  65 2.02  73 2.02   1 3.20  49 3.20

[...]

  65  0.500  0.500  0.140-  53 2.00  49 2.02   2 2.02
  66  0.750  0.500  0.140-  54 2.00  50 2.02  49 2.02
  67  0.500  0.000  0.015-   4 2.02  51 2.02
  68  0.750  0.000  0.015-  51 2.02  52 2.02
  69  0.625  0.808  0.188-  49 2.00  55 2.02  56 2.02
  70  0.875  0.808  0.188-  50 2.00   7 2.02  56 2.02
  71  0.625  0.308  0.062-  51 2.00  53 2.02  54 2.02
  72  0.875  0.308  0.062-  52 2.00   5 2.02  54 2.02
  73  0.500  0.500  0.235-  61 2.00  49 2.02   2 2.02
  74  0.750  0.500  0.235-  62 2.00  50 2.02  49 2.02
  75  0.500  0.000  0.110-  55 2.00  51 2.02   4 2.02
  76  0.750  0.000  0.110-  56 2.00  52 2.02  51 2.02
  77  0.625  0.192  0.188-  49 2.00  55 2.02  56 2.02
  78  0.875  0.192  0.188-  50 2.00   7 2.02  56 2.02
  79  0.625  0.692  0.062-  51 2.00  53 2.02  54 2.02
  80  0.875  0.692  0.062-  52 2.00   5 2.02  54 2.02
  81  0.498  0.500  0.389-  61 1.98  57 2.03  10 2.04
  82  0.751  0.499  0.389-  62 1.98  57 2.03  58 2.05
  83  0.500  0.000  0.265-  55 2.00  12 2.02  59 2.03
  84  0.749  0.000  0.265-  56 2.00  60 2.02  59 2.03
  85  0.625  0.805  0.428-  57 1.99  63 2.01  64 2.01
  86  0.873  0.810  0.442-  58 2.01  15 2.02  64 2.06
  87  0.625  0.308  0.312-  59 1.99  61 2.03  62 2.03
  88  0.875  0.308  0.313-  60 1.99  13 2.02  62 2.03
  89  0.503  0.500  0.483-  57 1.98  10 1.99
  90  0.747  0.500  0.483-  57 1.98  58 1.99
  91  0.496  0.000  0.361-  12 1.99  59 2.06  63 2.07
  92  0.754  0.000  0.361-  60 1.99  59 2.06  64 2.06
  93  0.625  0.194  0.428-  57 1.99  63 2.01  64 2.01
  94  0.873  0.189  0.443-  58 2.01  15 2.02  64 2.06
  95  0.625  0.692  0.313-  59 1.99  61 2.03  62 2.03
  96  0.875  0.692  0.313-  60 1.99  13 2.02  62 2.03
  97  0.692  0.998  0.509-  98 1.71  64 1.89
  98  0.558  0.998  0.509-  97 1.71  63 1.89

  LATTYP: Found a simple orthorhombic cell.
 ALAT       =     6.4702430000
 B/A-ratio  =     1.9796060210
 C/A-ratio  =     4.0000000000

  Lattice vectors:

 A1 = (   0.0000000000,  -6.4702430000,   0.0000000000)
 A2 = ( -12.8085320000,   0.0000000000,   0.0000000000)
 A3 = (   0.0000000000,   0.0000000000, -25.8809720000)

Analysis of symmetry for initial positions (statically):
 Subroutine PRICEL returns:
 Original cell was already a primitive cell.

 Routine SETGRP: Setting up the symmetry group for a
 simple orthorhombic supercell.

 Subroutine GETGRP returns: Found  1 space group operations
 (whereof  1 operations were pure point group operations)
 out of a pool of  8 trial point group operations.

The static configuration has the point symmetry C_1 .

Analysis of symmetry for dynamics (positions and initial velocities):
 Subroutine PRICEL returns:
 Original cell was already a primitive cell.

[...]

The dynamic configuration has the point symmetry C_1 .

Analysis of constrained symmetry for selective dynamics:
 Subroutine PRICEL returns:
 Original cell was already a primitive cell.

[...]

The constrained configuration has the point symmetry C_1 .

Analysis of structural, dynamic, and magnetic symmetry:
 Subroutine PRICEL returns:
 Original cell was already a primitive cell.

[...]

The magnetic configuration has the point symmetry C_1 .

 Subroutine INISYM returns: Found  1 space group operations
 (whereof  1 operations are pure point group operations),
 and found     1 'primitive' translations

 KPOINTS: Automatic mesh

Automatic generation of k-mesh.
Space group operators:
 irot       det(A)        alpha          n_x          n_y          n_z        tau_x        tau_y        tau_z
    1     1.000000     0.000001     1.000000     0.000000     0.000000     0.000000     0.000000     0.000000

 Subroutine IBZKPT returns following result:

 Found      5 irreducible k-points:

 Following reciprocal coordinates:
            Coordinates               Weight
  0.000000  0.000000  0.000000      1.000000
  0.333333  0.000000  0.000000      2.000000
  0.000000  0.333333  0.000000      2.000000
  0.333333  0.333333  0.000000      2.000000
 -0.333333  0.333333  0.000000      2.000000

 Following cartesian coordinates:
            Coordinates               Weight
  0.000000  0.000000  0.000000      1.000000
  0.026024  0.000000  0.000000      2.000000
  0.000000  0.051518  0.000000      2.000000
  0.026024  0.051518  0.000000      2.000000
 -0.026024  0.051518  0.000000      2.000000

 Subroutine IBZKPT_HF returns following result:

 Found      9 k-points in 1st BZ
 the following      9 k-points will be used (e.g. in the exchange kernel)
 Following reciprocal coordinates:   # in IRBZ
  0.000000  0.000000  0.000000    0.11111111   1 t-inv F
  0.333333  0.000000  0.000000    0.11111111   2 t-inv F
  0.000000  0.333333  0.000000    0.11111111   3 t-inv F
  0.333333  0.333333  0.000000    0.11111111   4 t-inv F
 -0.333333  0.333333  0.000000    0.11111111   5 t-inv F
 -0.333333  0.000000  0.000000    0.11111111   2 t-inv T
  0.000000 -0.333333  0.000000    0.11111111   3 t-inv T
 -0.333333 -0.333333  0.000000    0.11111111   4 t-inv T
  0.333333 -0.333333  0.000000    0.11111111   5 t-inv T

 SYSTEM =  unknown system
 POSCAR =  Ir  O Ir  O

 Startparameter for this run:
   NWRITE =      2    write-flag & timer
   PREC   = normal    normal or accurate (medium, high low for compatibility)
   ISTART =      0    job   : 0-new  1-cont  2-samecut
   ICHARG =      2    charge: 1-file 2-atom 10-const
   ISPIN  =      2    spin polarized calculation?
   LNONCOLLINEAR =      F non collinear calculations
   LSORBIT =      F    spin-orbit coupling
   INIWAV =      1    electr: 0-lowe 1-rand  2-diag
   LASPH  =      F    aspherical Exc in radial PAW
   METAGGA=      F    non-selfconsistent MetaGGA calc.

 Electronic Relaxation 1
   ENCUT  =  500.0 eV  36.75 Ry    6.06 a.u.  23.35 11.80 47.19*2*pi/ulx,y,z
   ENINI  =  500.0     initial cutoff
   ENAUG  =  605.4 eV  augmentation charge cutoff
   NELM   =     60;   NELMIN=  4; NELMDL= -5     # of ELM steps
   EDIFF  = 0.1E-05   stopping-criterion for ELM
   LREAL  =      T    real-space projection
   NLSPLINE    = F    spline interpolate recip. space projectors
   LCOMPAT=      F    compatible to vasp.4.4
   GGA_COMPAT  = T    GGA compatible to vasp.4.4-vasp.4.6
   LMAXPAW     = -100 max onsite density
   LMAXMIX     =    2 max onsite mixed and CHGCAR
   VOSKOWN=      0    Vosko Wilk Nusair interpolation
   ROPT   =   -0.00050  -0.00050  -0.00050  -0.00050
 Ionic relaxation
   EDIFFG = -.5E-01   stopping-criterion for IOM
   NSW    =   1213    number of steps for IOM
   NBLOCK =      1;   KBLOCK =   1213    inner block; outer block
   IBRION =      5    ionic relax: 0-MD 1-quasi-New 2-CG
   NFREE  =      2    steps in history (QN), initial steepest desc. (CG)
   ISIF   =      2    stress and relaxation
   IWAVPR =     11    prediction:  0-non 1-charg 2-wave 3-comb
   ISYM   =      2    0-nonsym 1-usesym 2-fastsym
   LCORR  =      T    Harris-Foulkes like correction to forces

   POTIM  = 0.5000    time-step for ionic-motion
   TEIN   =    0.0    initial temperature
   TEBEG  =    0.0;   TEEND  =   0.0 temperature during run
   SMASS  =  -3.00    Nose mass-parameter (am)
   estimated Nose-frequenzy (Omega)   =  0.10E-29 period in steps =****** mass=  -0.375E-26a.u.
   SCALEE = 1.0000    scale energy and forces
   NPACO  =    256;   APACO  = 16.0  distance and # of slots for P.C.
   PSTRESS=    0.0 pullay stress

  Mass of Ions in am
   POMASS = 192.22 16.00192.22 16.00
  Ionic Valenz
   ZVAL   =   9.00  6.00  9.00  6.00
  Atomic Wigner-Seitz radii
  virtual crystal weights
   VCA    =   1.00  1.00  1.00  1.00
[...]
     12.807372  0.003266  6.838093            0           0           0
      3.199332  0.003349  6.839264            0           0           0
      1.599566  5.245662 11.397949            0           0           0
      4.822756  5.242501 11.468614            0           0           0
      1.597009  1.996175  8.106804            0           0           0
      4.801003  1.995921  8.094503            0           0           0
     12.802987  3.234923 12.559464            0           0           0
      3.202114  3.229480 12.564252            0           0           0
     12.807143  0.000104  9.305225            0           0           0
      3.197879  0.000657  9.309289            0           0           0
      1.599269  1.223066 11.398258            0           0           0
      4.823855  1.223867 11.471070            0           0           0
      1.597072  4.476263  8.105431            0           0           0
      4.801016  4.477988  8.094049            0           0           0
      8.005332  3.235121  4.852682            0           0           0
     11.207465  3.235121  4.852682            0           0           0
      8.005332  0.000000  1.617561            0           0           0
     11.207465  0.000000  1.617561            0           0           0
      6.404266  3.235121  1.617561            0           0           0
      9.606399  3.235121  1.617561            0           0           0
      6.404266  0.000000  4.852682            0           0           0
      9.606399  0.000000  4.852682            0           0           0
      8.001674  3.233246 11.293874            0           0           0
     11.199090  3.232775 11.375395            0           0           0
      7.999862  0.001072  8.113275            0           0           0
     11.195885  0.001266  8.080601            0           0           0
[...]
      9.595651  0.000254  6.854395            0           0           0
      8.001930  5.210188 11.069642            0           0           0
     11.183314  5.241159 11.450476            0           0           0
      7.999894  1.993799  8.084530            0           0           0
     11.207813  1.995319  8.091003            0           0           0
      6.441749  3.233996 12.512915            0           0           0
      9.564351  3.234351 12.510071            0           0           0
      6.347180  0.002220  9.342826            0           0           0
      9.651575  0.002593  9.337628            0           0           0
      8.002037  1.256903 11.079356            0           0           0
     11.183803  1.224782 11.456014            0           0           0
      8.000087  4.478393  8.089474            0           0           0
     11.207340  4.477574  8.093753            0           0           0
      8.864191  6.456035 13.164386    -0.113247   -0.032787   -0.757026
      7.149630  6.454749 13.170810    -0.058746    0.010882    0.639877

[...]

   5 f  =    4.913531 THz    30.872625 2PiTHz  163.897742 cm-1    20.320737 meV
             X         Y         Z           dx          dy          dz
      1.601066  3.235121  4.852682            0           0           0
      4.803199  3.235121  4.852682            0           0           0
      1.601066  0.000000  1.617561            0           0           0
      4.803199  0.000000  1.617561            0           0           0
      0.000000  3.235121  1.617561            0           0           0
      3.202133  3.235121  1.617561            0           0           0
      0.000000  0.000000  4.852682            0           0           0
      3.202133  0.000000  4.852682            0           0           0
      1.599090  3.234148 11.372587            0           0           0
      4.806131  3.233165 11.380663            0           0           0
      1.598259  0.001406  8.075052            0           0           0
      4.807774  0.001874  8.083733            0           0           0
     12.806669  3.236356  8.110722            0           0           0
      3.199809  3.236391  8.110845            0           0           0
     12.781322  6.468825 11.265621            0           0           0
      3.227443  6.469269 11.271221            0           0           0
      0.000000  3.235121  3.613243            0           0           0
      3.202133  3.235121  3.613243            0           0           0
      0.000000  0.000000  0.378121            0           0           0
      3.202133  0.000000  0.378121            0           0           0
      1.601066  5.230803  4.852682            0           0           0
      4.803199  5.230803  4.852682            0           0           0
      1.601066  1.995682  1.617561            0           0           0
      4.803199  1.995682  1.617561            0           0           0
      0.000000  3.235121  6.092122            0           0           0
      3.202133  3.235121  6.092122            0           0           0
      0.000000  0.000000  2.857000            0           0           0
      3.202133  0.000000  2.857000            0           0           0
      1.601066  1.239440  4.852682            0           0           0
      4.803199  1.239440  4.852682            0           0           0
      1.601066  4.474561  1.617561            0           0           0
      4.803199  4.474561  1.617561            0           0           0
     12.802830  3.235104 10.109990            0           0           0
      3.205107  3.234078 10.108708            0           0           0
     12.807372  0.003266  6.838093            0           0           0
      3.199332  0.003349  6.839264            0           0           0
      1.599566  5.245662 11.397949            0           0           0
      4.822756  5.242501 11.468614            0           0           0
      1.597009  1.996175  8.106804            0           0           0
      4.801003  1.995921  8.094503            0           0           0
     12.802987  3.234923 12.559464            0           0           0
      3.202114  3.229480 12.564252            0           0           0
     12.807143  0.000104  9.305225            0           0           0
      3.197879  0.000657  9.309289            0           0           0
      1.599269  1.223066 11.398258            0           0           0
      4.823855  1.223867 11.471070            0           0           0
      1.597072  4.476263  8.105431            0           0           0
      4.801016  4.477988  8.094049            0           0           0
      8.005332  3.235121  4.852682            0           0           0
     11.207465  3.235121  4.852682            0           0           0
      8.005332  0.000000  1.617561            0           0           0
     11.207465  0.000000  1.617561            0           0           0
      6.404266  3.235121  1.617561            0           0           0
      9.606399  3.235121  1.617561            0           0           0
      6.404266  0.000000  4.852682            0           0           0
      9.606399  0.000000  4.852682            0           0           0
      8.001674  3.233246 11.293874            0           0           0
     11.199090  3.232775 11.375395            0           0           0
      7.999862  0.001072  8.113275            0           0           0
     11.195885  0.001266  8.080601            0           0           0
[...]
      9.595651  0.000254  6.854395            0           0           0
      8.001930  5.210188 11.069642            0           0           0
     11.183314  5.241159 11.450476            0           0           0
      7.999894  1.993799  8.084530            0           0           0
     11.207813  1.995319  8.091003            0           0           0
      6.441749  3.233996 12.512915            0           0           0
      9.564351  3.234351 12.510071            0           0           0
      6.347180  0.002220  9.342826            0           0           0
      9.651575  0.002593  9.337628            0           0           0
      8.002037  1.256903 11.079356            0           0           0
     11.183803  1.224782 11.456014            0           0           0
      8.000087  4.478393  8.089474            0           0           0
     11.207340  4.477574  8.093753            0           0           0
      8.864191  6.456035 13.164386     0.099949   -0.799469    0.065802
      7.149630  6.454749 13.170810     0.008060   -0.584983    0.065262

   6 f/i=   10.256368 THz    64.442658 2PiTHz  342.115588 cm-1    42.416942 meV
             X         Y         Z           dx          dy          dz
      1.601066  3.235121  4.852682            0           0           0
      4.803199  3.235121  4.852682            0           0           0
      1.601066  0.000000  1.617561            0           0           0
      4.803199  0.000000  1.617561            0           0           0
      0.000000  3.235121  1.617561            0           0           0
      3.202133  3.235121  1.617561            0           0           0
      0.000000  0.000000  4.852682            0           0           0
      3.202133  0.000000  4.852682            0           0           0
      1.599090  3.234148 11.372587            0           0           0
      4.806131  3.233165 11.380663            0           0           0
      1.598259  0.001406  8.075052            0           0           0
      4.807774  0.001874  8.083733            0           0           0
     12.806669  3.236356  8.110722            0           0           0
      3.199809  3.236391  8.110845            0           0           0
     12.781322  6.468825 11.265621            0           0           0
      3.227443  6.469269 11.271221            0           0           0
      0.000000  3.235121  3.613243            0           0           0
      3.202133  3.235121  3.613243            0           0           0
      0.000000  0.000000  0.378121            0           0           0
      3.202133  0.000000  0.378121            0           0           0
      1.601066  5.230803  4.852682            0           0           0
      4.803199  5.230803  4.852682            0           0           0
      1.601066  1.995682  1.617561            0           0           0
      4.803199  1.995682  1.617561            0           0           0
      0.000000  3.235121  6.092122            0           0           0
      3.202133  3.235121  6.092122            0           0           0
      0.000000  0.000000  2.857000            0           0           0
      3.202133  0.000000  2.857000            0           0           0
      1.601066  1.239440  4.852682            0           0           0
      4.803199  1.239440  4.852682            0           0           0
      1.601066  4.474561  1.617561            0           0           0
      4.803199  4.474561  1.617561            0           0           0
     12.802830  3.235104 10.109990            0           0           0
      3.205107  3.234078 10.108708            0           0           0
     12.807372  0.003266  6.838093            0           0           0
      3.199332  0.003349  6.839264            0           0           0
      1.599566  5.245662 11.397949            0           0           0
      4.822756  5.242501 11.468614            0           0           0
      1.597009  1.996175  8.106804            0           0           0
      4.801003  1.995921  8.094503            0           0           0
     12.802987  3.234923 12.559464            0           0           0
      3.202114  3.229480 12.564252            0           0           0
     12.807143  0.000104  9.305225            0           0           0
      3.197879  0.000657  9.309289            0           0           0
      1.599269  1.223066 11.398258            0           0           0
      4.823855  1.223867 11.471070            0           0           0
      1.597072  4.476263  8.105431            0           0           0
      4.801016  4.477988  8.094049            0           0           0
      8.005332  3.235121  4.852682            0           0           0
     11.207465  3.235121  4.852682            0           0           0
      8.005332  0.000000  1.617561            0           0           0
     11.207465  0.000000  1.617561            0           0           0
      6.404266  3.235121  1.617561            0           0           0
      9.606399  3.235121  1.617561            0           0           0
      6.404266  0.000000  4.852682            0           0           0
      9.606399  0.000000  4.852682            0           0           0
      8.001674  3.233246 11.293874            0           0           0
     11.199090  3.232775 11.375395            0           0           0
      7.999862  0.001072  8.113275            0           0           0
     11.195885  0.001266  8.080601            0           0           0
[...]
      9.595651  0.000254  6.854395            0           0           0
      8.001930  5.210188 11.069642            0           0           0
     11.183314  5.241159 11.450476            0           0           0
      7.999894  1.993799  8.084530            0           0           0
     11.207813  1.995319  8.091003            0           0           0
      6.441749  3.233996 12.512915            0           0           0
      9.564351  3.234351 12.510071            0           0           0
      6.347180  0.002220  9.342826            0           0           0
      9.651575  0.002593  9.337628            0           0           0
      8.002037  1.256903 11.079356            0           0           0
     11.183803  1.224782 11.456014            0           0           0
      8.000087  4.478393  8.089474            0           0           0
     11.207340  4.477574  8.093753            0           0           0
      8.864191  6.456035 13.164386     0.656155   -0.003495   -0.226638
      7.149630  6.454749 13.170810    -0.684170    0.057871   -0.215978

 Finite differences POTIM=  1.500000000000000E-002
  LATTYP: Found a simple orthorhombic cell.
 ALAT       =     6.4702430000
 B/A-ratio  =     1.9796060210
 C/A-ratio  =     4.0000000000

  Lattice vectors:

 A1 = (   0.0000000000,  -6.4702430000,   0.0000000000)
 A2 = ( -12.8085320000,   0.0000000000,   0.0000000000)
 A3 = (   0.0000000000,   0.0000000000, -25.8809720000)

Analysis of symmetry for initial positions (statically):
 Subroutine PRICEL returns:
 Original cell was already a primitive cell.

[...]

The static configuration has the point symmetry C_1 .

Analysis of symmetry for dynamics (positions and initial velocities):
 Subroutine PRICEL returns:
 Original cell was already a primitive cell.

[...]

The dynamic configuration has the point symmetry C_1 .

Analysis of constrained symmetry for selective dynamics:
 Subroutine PRICEL returns:
 Original cell was already a primitive cell.

[...]

The constrained configuration has the point symmetry C_1 .

Analysis of structural, dynamic, and magnetic symmetry:
 Subroutine PRICEL returns:
 Original cell was already a primitive cell.

 Routine SETGRP: Setting up the symmetry group for a
 simple orthorhombic supercell.

 Subroutine GETGRP returns: Found  1 space group operations
 (whereof  1 operations were pure point group operations)
 out of a pool of  8 trial point group operations.

The magnetic configuration has the point symmetry C_1 .

 Subroutine INISYM returns: Found  1 space group operations
 (whereof  1 operations are pure point group operations),
 and found     1 'primitive' translations

 KPOINTS: Automatic mesh

Automatic generation of k-mesh.
Space group operators:
 irot       det(A)        alpha          n_x          n_y          n_z        tau_x        tau_y        tau_z
    1     1.000000     0.000001     1.000000     0.000000     0.000000     0.000000     0.000000     0.000000

 Subroutine IBZKPT returns following result:

 Found      5 irreducible k-points:

 Following reciprocal coordinates:
            Coordinates               Weight
  0.000000  0.000000  0.000000      1.000000
  0.333333  0.000000  0.000000      2.000000
  0.000000  0.333333  0.000000      2.000000
  0.333333  0.333333  0.000000      2.000000
 -0.333333  0.333333  0.000000      2.000000

 Following cartesian coordinates:
            Coordinates               Weight
  0.000000  0.000000  0.000000      1.000000
  0.026024  0.000000  0.000000      2.000000
  0.000000  0.051518  0.000000      2.000000
  0.026024  0.051518  0.000000      2.000000
 -0.026024  0.051518  0.000000      2.000000

 vacuum level on the upper side and lower side of the slab         6.381         5.667