 vasp.5.4.4.18Apr17-6-g9f103f2a35 (build Feb 25 2019 10:51:38) complex

 executed on             LinuxIFC date 2023.03.14  11:38:41

 INCAR:
 POTCAR:    PAW_PBE Ir 06Sep2000
 POTCAR:    PAW_PBE O 08Apr2002
 POTCAR:    PAW_PBE Ir 06Sep2000
 POTCAR:    PAW_PBE O 08Apr2002
 POTCAR:    PAW_PBE Ir 06Sep2000
   VRHFIN =Ir: s1d8

   TITEL  = PAW_PBE Ir 06Sep2000
   POMASS =  192.220; ZVAL   =    9.000    mass and valenz
   ENMAX  =  210.864; ENMIN  =  158.148 eV

 POTCAR:    PAW_PBE O 08Apr2002
   VRHFIN =O: s2p4

   TITEL  = PAW_PBE O 08Apr2002
   POMASS =   16.000; ZVAL   =    6.000    mass and valenz
   ENMAX  =  400.000; ENMIN  =  300.000 eV

 POTCAR:    PAW_PBE Ir 06Sep2000
   VRHFIN =Ir: s1d8

   TITEL  = PAW_PBE Ir 06Sep2000
   POMASS =  192.220; ZVAL   =    9.000    mass and valenz
   ENMAX  =  210.864; ENMIN  =  158.148 eV

 POTCAR:    PAW_PBE O 08Apr2002
   VRHFIN =O: s2p4

   TITEL  = PAW_PBE O 08Apr2002
   POMASS =   16.000; ZVAL   =    6.000    mass and valenz
   ENMAX  =  400.000; ENMIN  =  300.000 eV

 Optimization of the real space projectors (new method)

 maximal supplied QI-value         = 14.36
 optimisation between [QCUT,QGAM] = [ 11.35, 22.84] = [ 36.05,146.02] Ry
 Optimized for a Real-space Cutoff    1.52 Angstroem

   l    n(q)    QCUT    max X(q) W(low)/X(q) W(high)/X(q)  e(spline)
   2      9    11.346   134.116    0.47E-03    0.13E-03    0.92E-06
   2      9    11.346   130.192    0.47E-03    0.13E-03    0.92E-06
   0     10    11.346    60.310    0.74E-04    0.13E-03    0.69E-06
   0     10    11.346    39.218    0.68E-04    0.12E-03    0.65E-06
   1     10    11.346    18.439    0.15E-03    0.34E-04    0.20E-06
   1     10    11.346    12.760    0.12E-03    0.31E-04    0.16E-06
 Optimization of the real space projectors (new method)

[...]

   l    n(q)    QCUT    max X(q) W(low)/X(q) W(high)/X(q)  e(spline)
   2      9    11.346   134.116    0.47E-03    0.13E-03    0.92E-06
   2      9    11.346   130.192    0.47E-03    0.13E-03    0.92E-06
   0     10    11.346    60.310    0.74E-04    0.13E-03    0.69E-06
   0     10    11.346    39.218    0.68E-04    0.12E-03    0.65E-06
   1     10    11.346    18.439    0.15E-03    0.34E-04    0.20E-06
   1     10    11.346    12.760    0.12E-03    0.31E-04    0.16E-06
 Optimization of the real space projectors (new method)

 maximal supplied QI-value         = 24.76
 optimisation between [QCUT,QGAM] = [ 11.39, 22.77] = [ 36.31,145.25] Ry
 Optimized for a Real-space Cutoff    1.00 Angstroem

   l    n(q)    QCUT    max X(q) W(low)/X(q) W(high)/X(q)  e(spline)
   0      7    11.387    20.381    0.39E-03    0.13E-02    0.15E-06
   0      7    11.387    15.268    0.42E-03    0.14E-02    0.17E-06
   1      6    11.387     5.964    0.41E-03    0.11E-02    0.17E-06
   1      6    11.387     5.382    0.39E-03    0.87E-03    0.15E-06

  PAW_PBE Ir 06Sep2000                  :
  PAW_PBE O 08Apr2002                   :
  PAW_PBE Ir 06Sep2000                  :
  PAW_PBE O 08Apr2002                   :

 POSCAR: Ir  O Ir  O
  positions in cartesian coordinates
 exchange correlation table for  LEXCH =        9
   RHO(1)=    0.500       N(1)  =     2000
   RHO(2)=  100.500       N(2)  =     4000

 VTST: version 3.2, (02/03/18)

 CHAIN: initializing optimizer

 OPT: Using VASP Conjugate-Gradient optimizer
 CHAIN: Read ICHAIN            0

 POSCAR: Ir  O Ir  O
  positions in cartesian coordinates

 ion  position               nearest neighbor table
   1  0.125  0.500  0.188-  21 2.00  29 2.00  17 2.02  25 2.02  26 2.02  18 2.02   2 3.20  50 3.20

   2  0.375  0.500  0.188-  22 2.00  30 2.00  26 2.02  18 2.02  65 2.02  73 2.02   1 3.20  49 3.20

[...]

  65  0.500  0.500  0.140-  53 2.00  49 2.02   2 2.02
  66  0.750  0.500  0.140-  54 2.00  50 2.02  49 2.02
  67  0.500  0.000  0.015-   4 2.02  51 2.02
  68  0.750  0.000  0.015-  51 2.02  52 2.02
  69  0.625  0.808  0.188-  49 2.00  55 2.02  56 2.02
  70  0.875  0.808  0.188-  50 2.00   7 2.02  56 2.02
  71  0.625  0.308  0.062-  51 2.00  53 2.02  54 2.02
  72  0.875  0.308  0.062-  52 2.00   5 2.02  54 2.02
  73  0.500  0.500  0.235-  61 2.00  49 2.02   2 2.02
  74  0.750  0.500  0.235-  62 2.00  50 2.02  49 2.02
  75  0.500  0.000  0.110-  55 2.00  51 2.02   4 2.02
  76  0.750  0.000  0.110-  56 2.00  52 2.02  51 2.02
  77  0.625  0.192  0.188-  49 2.00  55 2.02  56 2.02
  78  0.875  0.192  0.188-  50 2.00   7 2.02  56 2.02
  79  0.625  0.692  0.062-  51 2.00  53 2.02  54 2.02
  80  0.875  0.692  0.062-  52 2.00   5 2.02  54 2.02
  81  0.500  0.500  0.389-  61 1.98  57 2.03  10 2.04
  82  0.750  0.500  0.390-  62 1.99  57 2.03  58 2.04
  83  0.500  0.000  0.265-  55 2.00  12 2.01  59 2.03
  84  0.750  0.000  0.265-  56 2.00  60 2.01  59 2.03
  85  0.625  0.809  0.436-  57 2.00  63 2.03  64 2.03
  86  0.876  0.808  0.439-  58 2.00  15 2.02  64 2.04
  87  0.625  0.308  0.313-  59 1.99  61 2.03  62 2.03
  88  0.875  0.308  0.313-  60 1.99  62 2.02  13 2.03
  89  0.501  0.500  0.484-  57 1.99  10 1.99
  90  0.500  0.000  0.361-  12 2.02  59 2.03  63 2.10
  91  0.750  0.000  0.361-  60 2.02  59 2.03  64 2.10
  92  0.625  0.191  0.436-  57 2.00  63 2.03  64 2.03
  93  0.876  0.192  0.439-  58 2.00  15 2.02  64 2.04
  94  0.625  0.692  0.313-  59 1.99  61 2.03  62 2.03
  95  0.875  0.692  0.313-  60 1.99  62 2.02  13 2.03
  96  0.749  0.000  0.512-  64 1.80
  97  0.502  0.000  0.511-  63 1.80

  LATTYP: Found a simple orthorhombic cell.
 ALAT       =     6.4702430000
 B/A-ratio  =     1.9796060210
 C/A-ratio  =     4.0000000000

  Lattice vectors:

 A1 = (   0.0000000000,  -6.4702430000,   0.0000000000)
 A2 = ( -12.8085320000,   0.0000000000,   0.0000000000)
 A3 = (   0.0000000000,   0.0000000000, -25.8809720000)

Analysis of symmetry for initial positions (statically):
 Subroutine PRICEL returns:
 Original cell was already a primitive cell.

 Routine SETGRP: Setting up the symmetry group for a
 simple orthorhombic supercell.

 Subroutine GETGRP returns: Found  2 space group operations
 (whereof  2 operations were pure point group operations)
 out of a pool of  8 trial point group operations.

The static configuration has the point symmetry C_1h.

Analysis of symmetry for dynamics (positions and initial velocities):
 Subroutine PRICEL returns:
 Original cell was already a primitive cell.

[...]

The dynamic configuration has the point symmetry C_1h.

Analysis of constrained symmetry for selective dynamics:
 Subroutine PRICEL returns:
 Original cell was already a primitive cell.

[...]

The constrained configuration has the point symmetry C_1h.

Analysis of structural, dynamic, and magnetic symmetry:
 Subroutine PRICEL returns:
 Original cell was already a primitive cell.

 Routine SETGRP: Setting up the symmetry group for a
 simple orthorhombic supercell.

 Subroutine GETGRP returns: Found  2 space group operations
 (whereof  2 operations were pure point group operations)
 out of a pool of  8 trial point group operations.

The magnetic configuration has the point symmetry C_1h.

 Subroutine INISYM returns: Found  2 space group operations
 (whereof  2 operations are pure point group operations),
 and found     1 'primitive' translations

 KPOINTS: Automatic mesh

Automatic generation of k-mesh.
Space group operators:
 irot       det(A)        alpha          n_x          n_y          n_z        tau_x        tau_y        tau_z
    1     1.000000     0.000001     1.000000     0.000000     0.000000     0.000000     0.000000     0.000000
    2    -1.000000   180.000000     0.000000     1.000000     0.000000     0.000000     0.000000     0.000000

 Subroutine IBZKPT returns following result:

 Found      4 irreducible k-points:

 Following reciprocal coordinates:
            Coordinates               Weight
  0.000000  0.000000  0.000000      1.000000
  0.333333  0.000000  0.000000      2.000000
  0.000000  0.333333  0.000000      2.000000
  0.333333  0.333333  0.000000      4.000000

 Following cartesian coordinates:
            Coordinates               Weight
  0.000000  0.000000  0.000000      1.000000
  0.026024  0.000000  0.000000      2.000000
  0.000000  0.051518  0.000000      2.000000
  0.026024  0.051518  0.000000      4.000000

 SYSTEM =  unknown system
 POSCAR =  Ir  O Ir  O

 Startparameter for this run:
   NWRITE =      2    write-flag & timer
   PREC   = normal    normal or accurate (medium, high low for compatibility)
   ISTART =      0    job   : 0-new  1-cont  2-samecut
   ICHARG =      2    charge: 1-file 2-atom 10-const
   ISPIN  =      2    spin polarized calculation?
   LNONCOLLINEAR =      F non collinear calculations
   LSORBIT =      F    spin-orbit coupling
   INIWAV =      1    electr: 0-lowe 1-rand  2-diag
   LASPH  =      F    aspherical Exc in radial PAW
   METAGGA=      F    non-selfconsistent MetaGGA calc.

 Electronic Relaxation 1
   ENCUT  =  500.0 eV  36.75 Ry    6.06 a.u.  23.35 11.80 47.19*2*pi/ulx,y,z
   ENINI  =  500.0     initial cutoff
   ENAUG  =  605.4 eV  augmentation charge cutoff
   NELM   =     60;   NELMIN=  4; NELMDL= -5     # of ELM steps
   EDIFF  = 0.1E-04   stopping-criterion for ELM
   LREAL  =      T    real-space projection
   NLSPLINE    = F    spline interpolate recip. space projectors
   LCOMPAT=      F    compatible to vasp.4.4
   GGA_COMPAT  = T    GGA compatible to vasp.4.4-vasp.4.6
   LMAXPAW     = -100 max onsite density
   LMAXMIX     =    2 max onsite mixed and CHGCAR
   VOSKOWN=      0    Vosko Wilk Nusair interpolation
   ROPT   =   -0.00050  -0.00050  -0.00050  -0.00050
 Ionic relaxation
   EDIFFG = -.5E-01   stopping-criterion for IOM
   NSW    =    500    number of steps for IOM
   NBLOCK =      1;   KBLOCK =    500    inner block; outer block
   IBRION =      2    ionic relax: 0-MD 1-quasi-New 2-CG
   NFREE  =      1    steps in history (QN), initial steepest desc. (CG)
   ISIF   =      2    stress and relaxation
   IWAVPR =     11    prediction:  0-non 1-charg 2-wave 3-comb
   ISYM   =      2    0-nonsym 1-usesym 2-fastsym
   LCORR  =      T    Harris-Foulkes like correction to forces

   POTIM  = 0.5000    time-step for ionic-motion
   TEIN   =    0.0    initial temperature
   TEBEG  =    0.0;   TEEND  =   0.0 temperature during run
   SMASS  =  -3.00    Nose mass-parameter (am)
   estimated Nose-frequenzy (Omega)   =  0.10E-29 period in steps =****** mass=  -0.375E-26a.u.
   SCALEE = 1.0000    scale energy and forces
   NPACO  =    256;   APACO  = 16.0  distance and # of slots for P.C.
   PSTRESS=    0.0 pullay stress

  Mass of Ions in am
   POMASS = 192.22 16.00192.22 16.00
  Ionic Valenz
   ZVAL   =   9.00  6.00  9.00  6.00
  Atomic Wigner-Seitz radii
  virtual crystal weights
   VCA    =   1.00  1.00  1.00  1.00
   NELECT =     678.0000    total number of electrons
   NUPDOWN=      -1.0000    fix difference up-down

 DOS related values:
   EMIN   =  10.00;   EMAX   =-10.00  energy-range for DOS
   EFERMI =   0.00
   ISMEAR =     0;   SIGMA  =   0.05  broadening in eV -4-tet -1-fermi 0-gaus

 Electronic relaxation 2 (details)
   IALGO  =     68    algorithm
   LDIAG  =      T    sub-space diagonalisation (order eigenvalues)
   LSUBROT=      F    optimize rotation matrix (better conditioning)
[...]
   0.532E+00 -.124E-11 0.257E+04   -.518E+00 0.758E-13 -.257E+04   -.192E-02 0.000E+00 -.255E+01   -.165E-01 0.141E-13 0.231E+00
   0.339E+01 0.437E-12 0.836E+03   -.344E+01 0.390E-13 -.837E+03   0.632E-02 0.000E+00 0.531E-01   0.317E-01 0.680E-12 0.606E+00
   0.211E+01 -.106E-11 0.840E+03   -.205E+01 -.130E-13 -.841E+03   -.191E-01 0.000E+00 0.402E-01   -.503E-01 0.488E-13 0.606E+00
   0.262E+02 0.604E-14 -.239E+04   -.260E+02 0.535E-12 0.240E+04   -.166E+00 0.000E+00 -.182E+01   -.487E-01 -.251E-12 -.109E+00
   0.275E+02 0.346E-13 -.236E+04   -.277E+02 -.155E-13 0.236E+04   0.260E+00 0.000E+00 -.198E+01   -.705E-01 0.142E-13 -.887E-01
   0.986E+01 0.399E-12 -.790E+03   -.985E+01 -.603E-13 0.789E+03   0.494E-02 0.000E+00 0.717E+00   -.976E-02 0.222E-12 0.336E+00
   0.582E+01 -.788E-13 -.787E+03   -.513E+01 -.174E-13 0.787E+03   -.618E+00 0.000E+00 0.109E+00   -.782E-01 0.476E-12 0.312E+00
   0.114E+02 -.440E-11 -.796E+03   -.112E+02 0.284E-12 0.796E+03   -.165E+00 0.000E+00 -.199E+00   0.511E-01 0.404E-12 0.374E+00
   0.938E+01 0.238E-12 -.791E+03   -.933E+01 0.348E-14 0.791E+03   0.362E-01 0.000E+00 -.295E+00   -.749E-01 -.126E-12 0.336E+00
   -.105E+02 0.121E-11 -.247E+04   0.105E+02 0.259E-11 0.247E+04   -.718E-01 0.000E+00 0.349E+01   0.436E-01 0.304E-12 -.898E-01
   0.476E+02 0.145E-11 -.247E+04   -.476E+02 -.676E-13 0.246E+04   0.446E-01 0.000E+00 0.338E+01   -.617E-01 -.236E-13 -.976E-01
   0.133E+01 0.130E-11 0.102E+04   -.137E+01 -.128E-13 -.102E+04   0.347E-02 0.000E+00 -.162E+01   0.871E-02 -.537E-12 0.407E+00
   0.779E+00 0.112E-11 0.102E+04   -.766E+00 -.391E-14 -.102E+04   0.227E-01 0.000E+00 -.165E+01   -.185E-01 -.226E-12 0.401E+00
   0.235E+00 0.659E-12 0.202E+04   -.226E+00 0.107E-13 -.205E+04   -.947E-02 0.000E+00 0.277E+02   -.127E-02 0.596E-12 -.562E-01
   0.283E+00 0.703E-12 0.202E+04   -.281E+00 0.100E-13 -.205E+04   0.451E-02 0.000E+00 0.277E+02   -.723E-02 0.191E-13 -.638E-01
   0.247E+01 0.344E+02 0.560E+03   -.244E+01 -.361E+02 -.560E+03   -.544E-01 0.166E+01 0.443E-01   -.182E-01 0.414E-01 0.406E+00
   -.665E+00 0.341E+02 0.561E+03   0.701E+00 -.359E+02 -.562E+03   0.607E-01 0.167E+01 0.835E-02   -.336E-01 0.247E-01 0.387E+00
   0.587E+00 -.361E+01 0.165E+04   -.575E+00 0.175E+01 -.165E+04   -.554E-01 0.182E+01 -.546E+00   -.662E-02 -.657E-02 0.162E+00
   -.780E-01 -.360E+01 0.165E+04   0.896E-01 0.174E+01 -.165E+04   0.528E-01 0.181E+01 -.541E+00   -.994E-02 -.505E-02 0.151E+00
   0.481E+01 0.171E-12 0.107E+03   -.488E+01 0.424E-13 -.104E+03   0.818E-01 0.000E+00 -.231E+01   0.204E-01 -.443E-12 0.390E+00
   0.262E+01 0.422E-12 0.112E+03   -.260E+01 0.172E-14 -.110E+03   -.578E-02 0.000E+00 -.223E+01   -.338E-01 0.112E-12 0.401E+00
   0.929E+00 0.272E-12 0.119E+04   -.918E+00 0.308E-13 -.119E+04   -.268E-01 0.000E+00 0.202E+00   0.607E-02 0.655E-12 0.378E+00
   0.526E+00 -.169E-11 0.119E+04   -.520E+00 0.137E-13 -.119E+04   0.154E-01 0.000E+00 0.207E+00   -.189E-01 0.252E-12 0.366E+00
   0.247E+01 -.344E+02 0.560E+03   -.244E+01 0.361E+02 -.560E+03   -.544E-01 -.166E+01 0.443E-01   -.182E-01 -.414E-01 0.406E+00
   -.665E+00 -.341E+02 0.561E+03   0.701E+00 0.359E+02 -.562E+03   0.607E-01 -.167E+01 0.835E-02   -.336E-01 -.247E-01 0.387E+00
   0.587E+00 0.361E+01 0.165E+04   -.575E+00 -.175E+01 -.165E+04   -.554E-01 -.182E+01 -.546E+00   -.662E-02 0.657E-02 0.162E+00
   -.780E-01 0.360E+01 0.165E+04   0.896E-01 -.174E+01 -.165E+04   0.528E-01 -.181E+01 -.541E+00   -.994E-02 0.505E-02 0.151E+00
   0.169E+02 -.233E-12 -.117E+04   -.161E+02 0.160E-11 0.117E+04   -.861E+00 0.000E+00 -.149E+01   0.273E-01 0.173E-12 0.626E-01
   0.177E+02 0.132E-12 -.115E+04   -.178E+02 0.460E-13 0.115E+04   0.157E+00 0.000E+00 -.635E+00   -.663E-01 -.261E-12 0.378E-01
   0.712E+01 -.580E-12 -.832E+02   -.837E+01 -.497E-13 0.815E+02   0.118E+01 0.000E+00 0.142E+01   0.548E-01 0.731E-12 0.315E+00
   0.162E+01 -.448E-12 -.787E+02   -.431E+00 -.446E-14 0.771E+02   -.112E+01 0.000E+00 0.131E+01   -.674E-01 0.151E-12 0.353E+00
   0.157E+02 -.136E+01 -.166E+04   -.160E+02 -.451E+00 0.166E+04   0.348E+00 0.184E+01 -.482E+01   0.224E-02 -.225E-01 -.697E-01
   0.400E+02 0.167E+02 -.159E+04   -.405E+02 -.187E+02 0.160E+04   0.611E+00 0.195E+01 -.184E+01   -.704E-01 0.953E-02 -.685E-01
   0.619E+01 0.332E+02 -.526E+03   -.610E+01 -.348E+02 0.525E+03   -.791E-01 0.165E+01 0.410E+00   -.592E-02 -.411E-01 0.238E+00
   0.466E+01 0.330E+02 -.516E+03   -.492E+01 -.345E+02 0.515E+03   0.320E+00 0.160E+01 0.664E+00   -.634E-01 -.167E-01 0.215E+00
   0.178E+02 0.756E-12 -.201E+04   -.176E+02 0.207E-11 0.204E+04   -.168E+00 0.000E+00 -.283E+02   -.228E-02 -.123E-11 -.203E+00
   0.291E+02 0.159E-11 -.201E+04   -.290E+02 0.453E-13 0.204E+04   -.327E-01 0.000E+00 -.283E+02   -.599E-01 0.605E-13 -.152E+00
   0.256E+01 -.791E-12 -.981E+03   -.260E+01 -.263E-12 0.978E+03   -.303E-01 0.000E+00 0.338E+01   0.603E-01 0.146E-12 0.768E-01
   0.136E+02 0.457E-12 -.969E+03   -.134E+02 -.470E-13 0.965E+03   -.132E+00 0.000E+00 0.367E+01   -.731E-01 0.689E-13 0.107E+00
   0.157E+02 0.136E+01 -.166E+04   -.160E+02 0.451E+00 0.166E+04   0.348E+00 -.184E+01 -.482E+01   0.224E-02 0.225E-01 -.697E-01
   0.400E+02 -.167E+02 -.159E+04   -.405E+02 0.187E+02 0.160E+04   0.611E+00 -.195E+01 -.184E+01   -.704E-01 -.953E-02 -.685E-01
   0.619E+01 -.332E+02 -.526E+03   -.610E+01 0.348E+02 0.525E+03   -.791E-01 -.165E+01 0.410E+00   -.592E-02 0.411E-01 0.238E+00
   0.466E+01 -.330E+02 -.516E+03   -.492E+01 0.345E+02 0.515E+03   0.320E+00 -.160E+01 0.664E+00   -.634E-01 0.167E-01 0.215E+00
   -.452E+01 0.127E-11 0.840E+03   0.459E+01 -.859E-13 -.841E+03   -.284E-01 0.000E+00 -.638E+00   0.883E-02 0.887E-12 0.573E+00
   0.135E+01 -.760E-12 0.837E+03   -.147E+01 -.941E-13 -.837E+03   0.235E-01 0.000E+00 -.676E+00   0.446E-01 -.961E-12 0.591E+00
   -.897E+00 0.102E-13 0.242E+04   0.881E+00 -.881E-13 -.243E+04   -.182E-01 0.000E+00 0.147E+01   0.437E-02 -.947E-12 0.224E+00
   0.161E+00 0.469E-13 0.242E+04   -.166E+00 -.585E-13 -.243E+04   0.141E-01 0.000E+00 0.146E+01   0.237E-01 -.448E-13 0.245E+00
   -.709E+00 -.330E-11 0.257E+04   0.724E+00 0.340E-14 -.257E+04   -.219E-01 0.000E+00 -.258E+01   -.106E-01 -.288E-13 0.215E+00
   -.533E+00 -.105E-11 0.257E+04   0.520E+00 0.713E-13 -.257E+04   -.861E-02 0.000E+00 -.238E+01   0.173E-01 -.549E-12 0.218E+00
   -.339E+01 0.231E-13 0.838E+03   0.343E+01 0.178E-13 -.839E+03   -.978E-02 0.000E+00 0.175E+00   -.268E-01 0.455E-13 0.570E+00
   -.205E+01 -.440E-12 0.832E+03   0.200E+01 -.266E-13 -.833E+03   0.299E-01 0.000E+00 0.162E+00   0.453E-01 0.140E-12 0.568E+00
   -.155E+03 0.312E-12 -.242E+04   0.153E+03 0.560E-12 0.242E+04   0.202E+01 0.000E+00 -.357E+00   0.480E-01 0.225E-12 -.489E-01
   0.104E+03 0.145E-11 -.246E+04   -.101E+03 0.203E-10 0.246E+04   -.210E+01 0.000E+00 -.173E+00   0.551E-01 -.247E-12 -.514E-01
   -.152E+02 -.468E-12 -.799E+03   0.152E+02 -.532E-13 0.799E+03   -.295E-02 0.000E+00 -.487E+00   0.136E-01 0.902E-12 0.319E+00
   -.518E+00 0.922E-13 -.805E+03   -.170E+00 -.255E-12 0.804E+03   0.624E+00 0.000E+00 0.866E-01   0.737E-01 0.517E-12 0.325E+00
[...]
   -.223E+01 0.272E-12 -.825E+02   0.117E+01 -.214E-13 0.798E+02   0.102E+01 0.000E+00 0.241E+01   0.356E-01 0.357E-12 0.333E+00
   -.419E+02 0.664E+02 -.155E+04   0.418E+02 -.687E+02 0.155E+04   0.108E+00 0.237E+01 0.224E+01   0.207E-01 -.348E-01 -.563E-01
   -.126E+02 0.445E+02 -.163E+04   0.133E+02 -.466E+02 0.163E+04   -.737E+00 0.218E+01 -.259E+01   0.466E-01 -.636E-01 -.650E-01
   -.118E+02 0.307E+02 -.531E+03   0.121E+02 -.324E+02 0.531E+03   -.248E+00 0.170E+01 -.236E+00   0.591E-02 -.250E-02 0.209E+00
   0.105E+01 0.308E+02 -.542E+03   -.113E+01 -.325E+02 0.543E+03   0.302E-01 0.175E+01 -.437E+00   0.495E-01 0.145E-01 0.224E+00
   -.202E+02 -.536E-12 -.199E+04   0.202E+02 0.435E-13 0.202E+04   0.324E-01 0.000E+00 -.291E+02   -.330E-02 0.360E-12 -.115E+00
   -.298E+01 -.492E-12 -.980E+03   0.332E+01 -.502E-13 0.987E+03   -.314E+00 0.000E+00 -.752E+01   -.110E-01 0.113E-11 0.758E-01
   -.140E+02 0.121E-11 -.997E+03   0.134E+02 -.241E-12 0.100E+04   0.517E+00 0.000E+00 -.750E+01   0.299E-01 -.304E-12 0.634E-01
   -.419E+02 -.664E+02 -.155E+04   0.418E+02 0.687E+02 0.155E+04   0.108E+00 -.237E+01 0.224E+01   0.207E-01 0.348E-01 -.563E-01
   -.126E+02 -.445E+02 -.163E+04   0.133E+02 0.466E+02 0.163E+04   -.737E+00 -.218E+01 -.259E+01   0.466E-01 0.636E-01 -.650E-01
   -.118E+02 -.307E+02 -.531E+03   0.121E+02 0.324E+02 0.531E+03   -.248E+00 -.170E+01 -.236E+00   0.591E-02 0.250E-02 0.209E+00
   0.105E+01 -.308E+02 -.542E+03   -.113E+01 0.325E+02 0.543E+03   0.302E-01 -.175E+01 -.437E+00   0.495E-01 -.145E-01 0.224E+00
   -.526E+02 -.176E-12 -.202E+04   0.521E+02 -.239E-12 0.205E+04   0.485E+00 0.000E+00 -.311E+02   0.614E-03 0.151E-11 -.181E+00
   0.272E+02 0.545E-12 -.203E+04   -.267E+02 -.446E-13 0.206E+04   -.563E+00 0.000E+00 -.316E+02   0.105E-03 -.256E-12 -.163E+00
   -.179E+00 0.401E-10 0.611E+02   0.274E-11 0.107E-12 0.546E-11   0.286E+00 -.133E-14 -.805E+02   -.748E-01 0.420E-11 0.195E+02

 POSITION                                       TOTAL-FORCE (eV/Angst)
      1.60107      3.23512      4.85268        -0.014820     -0.000000     -0.287376
      4.80320      3.23512      4.85268        -0.004332     -0.000000     -0.300075
      1.60107      0.00000      1.61756        -0.018823     -0.000000     -0.934619
      4.80320      0.00000      1.61756         0.012472     -0.000000     -0.922666
      0.00000      3.23512      1.61756         0.021945     -0.000000      1.603270
      3.20213      3.23512      1.61756        -0.004507     -0.000000      1.620274
      0.00000      0.00000      4.85268        -0.011817     -0.000000     -0.259902
      3.20213      0.00000      4.85268        -0.006258     -0.000000     -0.265015
      1.60734      3.23512     11.35406         0.002683     -0.000000      0.016986
      4.80575      3.23512     11.33885         0.007287     -0.000000      0.011339
      1.60077     -0.00000      8.06976         0.005083     -0.000000      0.004127
      4.82637     -0.00000      8.08973        -0.008139     -0.000000     -0.010007
     12.80456      3.23512      8.09730         0.012430     -0.000000      0.000474
      3.20412      3.23512      8.09109         0.006146     -0.000000      0.009805
     -0.00583     -0.00000     11.26026         0.009104     -0.000000     -0.007032
      3.20184     -0.00000     11.24951        -0.005186     -0.000000     -0.006131
      0.00000      3.23512      3.61324        -0.022397     -0.000000     -0.128912
      3.20213      3.23512      3.61324         0.016547     -0.000000     -0.159320
      0.00000      0.00000      0.37812        -0.002059     -0.000000      0.800598
      3.20213      0.00000      0.37812        -0.000623     -0.000000      0.793384
      1.60107      5.23080      4.85268        -0.049192     -0.014550     -0.028353
      4.80320      5.23080      4.85268         0.062801     -0.022733     -0.039417
      1.60107      1.99568      1.61756        -0.050194     -0.040746     -0.692939
      4.80320      1.99568      1.61756         0.054146     -0.047941     -0.692250
      0.00000      3.23512      6.09212         0.038135     -0.000000      0.330917
      3.20213      3.23512      6.09212        -0.013185     -0.000000      0.313266
      0.00000      0.00000      2.85700        -0.010412     -0.000000      0.207520
      3.20213      0.00000      2.85700         0.002422     -0.000000      0.215357
      1.60107      1.23944      4.85268        -0.049192      0.014550     -0.028353
      4.80320      1.23944      4.85268         0.062801      0.022733     -0.039417
      1.60107      4.47456      1.61756        -0.050194      0.040746     -0.692939
      4.80320      4.47456      1.61756         0.054146      0.047941     -0.692250
      0.04699      3.23512     10.06135        -0.018840     -0.000000      0.020734
      3.20247      3.23512     10.07982        -0.006361     -0.000000     -0.006516
     12.80036     -0.00000      6.84368        -0.013522     -0.000000     -0.000186
      3.20888     -0.00000      6.84222         0.002510     -0.000000      0.003580
      1.60506      5.24276     11.40114        -0.008701      0.004782     -0.007479
      4.79528      5.23365     11.36239         0.002667     -0.003982      0.002963
      1.59986      1.99513      8.07511         0.004773     -0.000927      0.001191
      4.81037      1.99248      8.07435        -0.008320      0.004772      0.016424
     12.80338      3.23512     12.53411         0.014932     -0.000000     -0.005323
      3.21542      3.23512     12.51783         0.006453     -0.000000      0.015581
      0.00071     -0.00000      9.30576        -0.017260     -0.000000      0.004632
      3.20569     -0.00000      9.29994        -0.009108     -0.000000      0.004604
      1.60506      1.22749     11.40114        -0.008701     -0.004782     -0.007479
      4.79528      1.23659     11.36239         0.002667      0.003982      0.002963
      1.59986      4.47511      8.07511         0.004773      0.000927      0.001191
      4.81037      4.47776      8.07435        -0.008320     -0.004772      0.016424
      8.00533      3.23512      4.85268         0.052746     -0.000000     -0.281570
     11.20747      3.23512      4.85268        -0.053684     -0.000000     -0.289000
      8.00533      0.00000      1.61756        -0.029580     -0.000000     -0.915056
     11.20747      0.00000      1.61756         0.032263     -0.000000     -0.927808
      6.40427      3.23512      1.61756        -0.018437     -0.000000      1.592999
      9.60640      3.23512      1.61756        -0.004977     -0.000000      1.468271
      6.40427      0.00000      4.85268         0.003101     -0.000000     -0.181409
      9.60640      0.00000      4.85268         0.023614     -0.000000     -0.153029
      7.99081      3.23512     11.32104        -0.002182     -0.000000      0.012353
     11.22339      3.23512     11.34747         0.013485     -0.000000      0.035714
      8.00671     -0.00000      8.11075        -0.003184     -0.000000     -0.027019
     11.18722     -0.00000      8.09851         0.008389     -0.000000     -0.018199
[...]
      6.41136     -0.00000      6.85261         0.003494     -0.000000     -0.009218
      9.60246     -0.00000      6.85322        -0.004119     -0.000000      0.011983
      8.00929      5.22664     11.33210         0.005805     -0.002544      0.019305
     11.21595      5.22538     11.40066        -0.006168     -0.003334      0.012501
      8.00629      1.99083      8.10753        -0.007952      0.006900      0.013005
     11.20554      1.99345      8.11121        -0.006836      0.003316      0.005976
      6.41776      3.23512     12.50258        -0.019592     -0.000000      0.011036
      6.40192     -0.00000      9.35599         0.020312     -0.000000      0.001257
      9.61009     -0.00000      9.36739         0.002569     -0.000000      0.005583
      8.00929      1.24360     11.33210         0.005805      0.002544      0.019305
     11.21595      1.24486     11.40066        -0.006168      0.003334      0.012501
      8.00629      4.47941      8.10753        -0.007952     -0.006900      0.013005
     11.20554      4.47679      8.11121        -0.006836     -0.003316      0.005976
      9.58626     -0.00000     13.27185         0.030916     -0.000000     -0.001399
      6.43215     -0.00000     13.25269        -0.030354     -0.000000      0.010582
    total drift:                                0.031706      0.000000      0.159529

  FREE ENERGIE OF THE ION-ELECTRON SYSTEM (eV)
  free  energy   TOTEN  =      -619.59740984 eV

  energy  without entropy=     -619.52568407  energy(sigma->0) =     -619.56154695

 d Force = 0.5751872E-03[ 0.257E-03, 0.894E-03]  d Energy = 0.6677357E-03-0.925E-04
 d Force = 0.3961339E+02[ 0.396E+02, 0.396E+02]  d Ewald  = 0.3961339E+02-0.153E-05

 stress matrix after NEB project (eV)
    -19.21352      0.00000     -0.40965
      0.00000     -9.00553      0.00000
     -0.40965      0.00000     -4.95794
  FORCES: max atom, RMS     0.038175    0.012071
  FORCE total and by dimension    0.118889    0.035714
  Stress total and by dimension   21.798529   19.213523
 Conjugate gradient step on ions:
 trial-energy change:   -0.000668  1 .order   -0.000575   -0.000894   -0.000257
  (g-gl).g = 0.984E-03      g.g   = 0.130E-02  gl.gl    = 0.201E-02
 g(Force)  = 0.130E-02   g(Stress)= 0.000E+00 ortho     = 0.513E-04
 gamma     =   0.48844
 trial     =   0.67208
 opt step  =   0.80456  (harmonic =   0.94277) maximal distance =0.00289771
 next E    =  -619.597436   (d E  =  -0.00069)

 reached required accuracy - stopping structural energy minimisation