 vasp.5.4.4.18Apr17-6-g9f103f2a35 (build Feb 25 2019 10:51:38) complex

 executed on             LinuxIFC date 2022.11.22  09:23:49

 INCAR:
 POTCAR:    PAW_PBE Ir 06Sep2000
 POTCAR:    PAW_PBE O 08Apr2002
 POTCAR:    PAW_PBE Ir 06Sep2000
 POTCAR:    PAW_PBE O 08Apr2002
 POTCAR:    PAW_PBE Ir 06Sep2000
   VRHFIN =Ir: s1d8

   TITEL  = PAW_PBE Ir 06Sep2000
   POMASS =  192.220; ZVAL   =    9.000    mass and valenz
   ENMAX  =  210.864; ENMIN  =  158.148 eV

 POTCAR:    PAW_PBE O 08Apr2002
   VRHFIN =O: s2p4

   TITEL  = PAW_PBE O 08Apr2002
   POMASS =   16.000; ZVAL   =    6.000    mass and valenz
   ENMAX  =  400.000; ENMIN  =  300.000 eV

 POTCAR:    PAW_PBE Ir 06Sep2000
   VRHFIN =Ir: s1d8

   TITEL  = PAW_PBE Ir 06Sep2000
   POMASS =  192.220; ZVAL   =    9.000    mass and valenz
   ENMAX  =  210.864; ENMIN  =  158.148 eV

 POTCAR:    PAW_PBE O 08Apr2002
   VRHFIN =O: s2p4

   TITEL  = PAW_PBE O 08Apr2002
   POMASS =   16.000; ZVAL   =    6.000    mass and valenz
   ENMAX  =  400.000; ENMIN  =  300.000 eV

 Optimization of the real space projectors (new method)

 maximal supplied QI-value         = 14.36
 optimisation between [QCUT,QGAM] = [ 11.35, 22.84] = [ 36.05,146.02] Ry
 Optimized for a Real-space Cutoff    1.52 Angstroem

   l    n(q)    QCUT    max X(q) W(low)/X(q) W(high)/X(q)  e(spline)
   2      9    11.346   134.116    0.47E-03    0.13E-03    0.92E-06
   2      9    11.346   130.192    0.47E-03    0.13E-03    0.92E-06
   0     10    11.346    60.310    0.74E-04    0.13E-03    0.69E-06
   0     10    11.346    39.218    0.68E-04    0.12E-03    0.65E-06
   1     10    11.346    18.439    0.15E-03    0.34E-04    0.20E-06
   1     10    11.346    12.760    0.12E-03    0.31E-04    0.16E-06
 Optimization of the real space projectors (new method)

[...]

   l    n(q)    QCUT    max X(q) W(low)/X(q) W(high)/X(q)  e(spline)
   2      9    11.346   134.116    0.47E-03    0.13E-03    0.92E-06
   2      9    11.346   130.192    0.47E-03    0.13E-03    0.92E-06
   0     10    11.346    60.310    0.74E-04    0.13E-03    0.69E-06
   0     10    11.346    39.218    0.68E-04    0.12E-03    0.65E-06
   1     10    11.346    18.439    0.15E-03    0.34E-04    0.20E-06
   1     10    11.346    12.760    0.12E-03    0.31E-04    0.16E-06
 Optimization of the real space projectors (new method)

 maximal supplied QI-value         = 24.76
 optimisation between [QCUT,QGAM] = [ 11.39, 22.77] = [ 36.31,145.25] Ry
 Optimized for a Real-space Cutoff    1.00 Angstroem

   l    n(q)    QCUT    max X(q) W(low)/X(q) W(high)/X(q)  e(spline)
   0      7    11.387    20.381    0.39E-03    0.13E-02    0.15E-06
   0      7    11.387    15.268    0.42E-03    0.14E-02    0.17E-06
   1      6    11.387     5.964    0.41E-03    0.11E-02    0.17E-06
   1      6    11.387     5.382    0.39E-03    0.87E-03    0.15E-06

  PAW_PBE Ir 06Sep2000                  :
  PAW_PBE O 08Apr2002                   :
  PAW_PBE Ir 06Sep2000                  :
  PAW_PBE O 08Apr2002                   :

 POSCAR: Ir  O Ir  O
  positions in direct lattice
  velocities in cartesian coordinates
 exchange correlation table for  LEXCH =        9
   RHO(1)=    0.500       N(1)  =     2000
   RHO(2)=  100.500       N(2)  =     4000

 VTST: version 3.2, (02/03/18)

 CHAIN: initializing optimizer

 OPT: Using VASP QUASI-newton optimizer
 CHAIN: Read ICHAIN            0

 POSCAR: Ir  O Ir  O
  positions in direct lattice
  velocities in cartesian coordinates

 ion  position               nearest neighbor table
   1  0.125  0.500  0.188-  21 2.00  29 2.00  17 2.02  25 2.02  26 2.02  18 2.02   2 3.20  52 3.20

   2  0.375  0.500  0.188-  22 2.00  30 2.00  26 2.02  18 2.02  67 2.02  75 2.02   1 3.20  51 3.20

[...]

  67  0.500  0.500  0.140-  55 2.00  51 2.02   2 2.02
  68  0.750  0.500  0.140-  56 2.00  52 2.02  51 2.02
  69  0.500  0.000  0.015-   4 2.02  53 2.02
  70  0.750  0.000  0.015-  53 2.02  54 2.02
  71  0.625  0.808  0.188-  51 2.00  57 2.02  58 2.02
  72  0.875  0.808  0.188-  52 2.00   7 2.02  58 2.02
  73  0.625  0.308  0.062-  53 2.00  55 2.02  56 2.02
  74  0.875  0.308  0.062-  54 2.00   5 2.02  56 2.02
  75  0.500  0.500  0.235-  63 2.00  51 2.02   2 2.02
  76  0.750  0.500  0.235-  64 2.00  52 2.02  51 2.02
  77  0.500  0.000  0.110-  57 2.00  53 2.02   4 2.02
  78  0.750  0.000  0.110-  58 2.00  54 2.02  53 2.02
  79  0.625  0.192  0.188-  51 2.00  57 2.02  58 2.02
  80  0.875  0.192  0.188-  52 2.00   7 2.02  58 2.02
  81  0.625  0.692  0.062-  53 2.00  55 2.02  56 2.02
  82  0.875  0.692  0.062-  54 2.00   5 2.02  56 2.02
  83  0.500  0.500  0.389-  63 1.98  59 2.03  10 2.04
  84  0.751  0.500  0.389-  64 1.98  59 2.03  60 2.04
  85  0.500  0.000  0.265-  57 2.00  61 2.02  12 2.03
  86  0.750  0.000  0.265-  58 2.00  61 2.03  62 2.03
  87  0.625  0.808  0.434-  59 2.00  65 2.03  66 2.03
  88  0.875  0.809  0.438-  60 2.00  66 2.03  15 2.03
  89  0.625  0.308  0.312-  61 1.99  63 2.03  64 2.03
  90  0.875  0.308  0.312-  62 1.99  13 2.03  64 2.03
  91  0.501  0.500  0.483-  59 1.98  10 1.99
  92  0.749  0.500  0.483-  59 1.98  60 1.99
  93  0.499  0.000  0.361-  12 2.02  61 2.03  65 2.08
  94  0.751  0.000  0.361-  62 2.02  61 2.03  66 2.08
  95  0.625  0.192  0.434-  59 2.00  65 2.03  66 2.03
  96  0.875  0.191  0.438-  60 2.00  66 2.03  15 2.03
  97  0.625  0.692  0.312-  61 1.99  63 2.03  64 2.03
  98  0.875  0.692  0.312-  62 1.99  13 2.03  64 2.03
  99  0.740  0.000  0.510-  66 1.80
 100  0.511  0.000  0.510-  65 1.80

  LATTYP: Found a simple orthorhombic cell.
 ALAT       =     6.4702430000
 B/A-ratio  =     1.9796060210
 C/A-ratio  =     4.0000000000

  Lattice vectors:

 A1 = (   0.0000000000,  -6.4702430000,   0.0000000000)
 A2 = ( -12.8085320000,   0.0000000000,   0.0000000000)
 A3 = (   0.0000000000,   0.0000000000, -25.8809720000)

Analysis of symmetry for initial positions (statically):
 Subroutine PRICEL returns:
 Original cell was already a primitive cell.

 Routine SETGRP: Setting up the symmetry group for a
 simple orthorhombic supercell.

 Subroutine GETGRP returns: Found  2 space group operations
 (whereof  2 operations were pure point group operations)
 out of a pool of  8 trial point group operations.

The static configuration has the point symmetry C_1h.

Analysis of symmetry for dynamics (positions and initial velocities):
 Subroutine PRICEL returns:
 Original cell was already a primitive cell.

[...]

The dynamic configuration has the point symmetry C_1h.

Analysis of constrained symmetry for selective dynamics:
 Subroutine PRICEL returns:
 Original cell was already a primitive cell.

[...]

The constrained configuration has the point symmetry C_1h.

Analysis of structural, dynamic, and magnetic symmetry:
 Subroutine PRICEL returns:
 Original cell was already a primitive cell.

 Routine SETGRP: Setting up the symmetry group for a
 simple orthorhombic supercell.

 Subroutine GETGRP returns: Found  2 space group operations
 (whereof  2 operations were pure point group operations)
 out of a pool of  8 trial point group operations.

The magnetic configuration has the point symmetry C_1h.

 Subroutine INISYM returns: Found  2 space group operations
 (whereof  2 operations are pure point group operations),
 and found     1 'primitive' translations

 KPOINTS: Automatic mesh

Automatic generation of k-mesh.
Space group operators:
 irot       det(A)        alpha          n_x          n_y          n_z        tau_x        tau_y        tau_z
    1     1.000000     0.000001     1.000000     0.000000     0.000000     0.000000     0.000000     0.000000
    2    -1.000000   180.000000     0.000000     1.000000     0.000000     0.000000     0.000000     0.000000

 Subroutine IBZKPT returns following result:

 Found      4 irreducible k-points:

 Following reciprocal coordinates:
            Coordinates               Weight
  0.000000  0.000000  0.000000      1.000000
  0.333333  0.000000  0.000000      2.000000
  0.000000  0.333333  0.000000      2.000000
  0.333333  0.333333  0.000000      4.000000

 Following cartesian coordinates:
            Coordinates               Weight
  0.000000  0.000000  0.000000      1.000000
  0.026024  0.000000  0.000000      2.000000
  0.000000  0.051518  0.000000      2.000000
  0.026024  0.051518  0.000000      4.000000

 SYSTEM =  unknown system
 POSCAR =  Ir  O Ir  O

 Startparameter for this run:
   NWRITE =      2    write-flag & timer
   PREC   = normal    normal or accurate (medium, high low for compatibility)
   ISTART =      0    job   : 0-new  1-cont  2-samecut
   ICHARG =      2    charge: 1-file 2-atom 10-const
   ISPIN  =      2    spin polarized calculation?
   LNONCOLLINEAR =      F non collinear calculations
   LSORBIT =      F    spin-orbit coupling
   INIWAV =      1    electr: 0-lowe 1-rand  2-diag
   LASPH  =      F    aspherical Exc in radial PAW
   METAGGA=      F    non-selfconsistent MetaGGA calc.

 Electronic Relaxation 1
   ENCUT  =  500.0 eV  36.75 Ry    6.06 a.u.  23.35 11.80 47.19*2*pi/ulx,y,z
   ENINI  =  500.0     initial cutoff
   ENAUG  =  605.4 eV  augmentation charge cutoff
   NELM   =     60;   NELMIN=  4; NELMDL= -5     # of ELM steps
   EDIFF  = 0.1E-04   stopping-criterion for ELM
   LREAL  =      T    real-space projection
   NLSPLINE    = F    spline interpolate recip. space projectors
   LCOMPAT=      F    compatible to vasp.4.4
   GGA_COMPAT  = T    GGA compatible to vasp.4.4-vasp.4.6
   LMAXPAW     = -100 max onsite density
   LMAXMIX     =    2 max onsite mixed and CHGCAR
   VOSKOWN=      0    Vosko Wilk Nusair interpolation
   ROPT   =   -0.00050  -0.00050  -0.00050  -0.00050
 Ionic relaxation
   EDIFFG = -.5E-01   stopping-criterion for IOM
   NSW    =    500    number of steps for IOM
   NBLOCK =      1;   KBLOCK =    500    inner block; outer block
   IBRION =      1    ionic relax: 0-MD 1-quasi-New 2-CG
   NFREE  =      0    steps in history (QN), initial steepest desc. (CG)
   ISIF   =      2    stress and relaxation
   IWAVPR =     11    prediction:  0-non 1-charg 2-wave 3-comb
   ISYM   =      2    0-nonsym 1-usesym 2-fastsym
   LCORR  =      T    Harris-Foulkes like correction to forces

   POTIM  = 0.5000    time-step for ionic-motion
   TEIN   =    0.0    initial temperature
   TEBEG  =    0.0;   TEEND  =   0.0 temperature during run
   SMASS  =  -3.00    Nose mass-parameter (am)
   estimated Nose-frequenzy (Omega)   =  0.10E-29 period in steps =****** mass=  -0.375E-26a.u.
   SCALEE = 1.0000    scale energy and forces
   NPACO  =    256;   APACO  = 16.0  distance and # of slots for P.C.
   PSTRESS=    0.0 pullay stress

  Mass of Ions in am
   POMASS = 192.22 16.00192.22 16.00
  Ionic Valenz
   ZVAL   =   9.00  6.00  9.00  6.00
  Atomic Wigner-Seitz radii
  virtual crystal weights
   VCA    =   1.00  1.00  1.00  1.00
   NELECT =     696.0000    total number of electrons
   NUPDOWN=      -1.0000    fix difference up-down

 DOS related values:
   EMIN   =  10.00;   EMAX   =-10.00  energy-range for DOS
   EFERMI =   0.00
   ISMEAR =     0;   SIGMA  =   0.05  broadening in eV -4-tet -1-fermi 0-gaus

 Electronic relaxation 2 (details)
   IALGO  =     68    algorithm
   LDIAG  =      T    sub-space diagonalisation (order eigenvalues)
[...]
   -.790E-01 -.116E-11 0.260E+04   0.928E-01 0.279E-13 -.259E+04   0.224E-03 0.000E+00 -.262E+01   -.141E-01 -.565E-12 -.107E-01
   -.115E+00 0.160E-12 0.260E+04   -.192E-01 0.772E-13 -.259E+04   -.573E-04 0.000E+00 -.261E+01   0.135E+00 -.848E-12 0.416E-01
   -.377E+00 -.171E-11 0.903E+03   0.424E+00 0.480E-13 -.904E+03   0.508E-02 0.000E+00 0.152E+00   -.430E-01 0.564E-12 0.802E-01
   -.250E+00 -.272E-12 0.903E+03   0.457E-01 -.647E-14 -.904E+03   -.912E-02 0.000E+00 0.131E+00   0.200E+00 0.179E-12 0.736E-01
   -.113E+01 0.221E-12 -.229E+04   0.116E+01 0.296E-13 0.229E+04   -.108E-01 0.000E+00 -.224E+01   -.168E-01 -.215E-13 0.388E-01
   0.552E-01 -.105E-12 -.229E+04   -.139E+00 -.612E-14 0.229E+04   0.540E-02 0.000E+00 -.223E+01   0.815E-01 0.112E-11 -.213E-01
   -.190E+01 -.167E-12 -.686E+03   0.184E+01 0.110E-12 0.687E+03   0.164E-02 0.000E+00 -.397E+00   0.632E-01 0.264E-12 0.850E-01
   0.154E+01 0.480E-13 -.685E+03   -.171E+01 0.903E-14 0.686E+03   0.162E-01 0.000E+00 -.389E+00   0.155E+00 -.746E-14 0.562E-02
   -.378E+00 -.464E-12 -.680E+03   0.422E+00 -.285E-13 0.680E+03   -.505E-03 0.000E+00 -.318E+00   -.418E-01 -.716E-12 0.112E+00
   -.567E-01 -.367E-12 -.681E+03   -.771E-01 -.234E-13 0.681E+03   -.661E-02 0.000E+00 -.320E+00   0.135E+00 -.235E-12 0.306E-01
   0.271E+01 0.106E-11 -.226E+04   -.264E+01 -.701E-14 0.227E+04   -.999E-02 0.000E+00 -.201E+01   -.542E-01 -.169E-12 0.521E-01
   -.478E+01 0.318E-13 -.227E+04   0.472E+01 -.639E-14 0.227E+04   0.944E-02 0.000E+00 -.200E+01   0.548E-01 -.323E-12 0.202E-01
   -.143E+00 0.102E-11 0.105E+04   0.171E+00 -.133E-13 -.105E+04   -.667E-02 0.000E+00 -.163E+01   -.227E-01 -.740E-12 0.354E-01
   -.109E+00 0.545E-12 0.105E+04   -.416E-01 -.427E-14 -.105E+04   -.450E-02 0.000E+00 -.165E+01   0.156E+00 -.306E-12 0.645E-01
   -.247E-01 0.137E-11 0.203E+04   0.321E-01 0.698E-14 -.205E+04   0.134E-02 0.000E+00 0.279E+02   -.867E-02 0.584E-12 -.655E-01
   -.647E-01 0.185E-11 0.203E+04   -.455E-02 0.956E-14 -.205E+04   -.132E-02 0.000E+00 0.279E+02   0.714E-01 0.557E-12 -.246E-01
   -.233E+00 0.341E+02 0.604E+03   0.152E+00 -.357E+02 -.604E+03   -.556E-01 0.161E+01 -.495E-01   0.820E-01 -.795E-03 0.508E-01
   0.155E+00 0.341E+02 0.604E+03   -.282E+00 -.357E+02 -.604E+03   0.498E-01 0.161E+01 -.440E-01   0.131E+00 -.433E-01 0.538E-01
   -.954E-01 -.362E+01 0.167E+04   0.352E-01 0.173E+01 -.167E+04   -.556E-01 0.180E+01 -.469E+00   0.626E-01 0.173E-01 -.103E-02
   -.248E-01 -.362E+01 0.167E+04   -.530E-01 0.173E+01 -.167E+04   0.522E-01 0.180E+01 -.469E+00   0.791E-01 0.174E-01 0.569E-01
   -.620E+00 0.560E-12 0.166E+03   0.646E+00 -.363E-14 -.164E+03   0.962E-02 0.000E+00 -.250E+01   -.299E-01 -.305E-12 0.748E-01
   0.636E-01 -.257E-12 0.166E+03   -.212E+00 -.591E-14 -.163E+03   -.195E-01 0.000E+00 -.253E+01   0.159E+00 -.198E-12 0.287E-01
   -.928E-01 -.246E-12 0.121E+04   0.113E+00 0.245E-13 -.121E+04   -.321E-02 0.000E+00 0.244E+00   -.195E-01 0.525E-12 0.284E-01
   -.946E-01 0.202E-12 0.121E+04   -.214E-01 0.123E-13 -.121E+04   0.364E-02 0.000E+00 0.239E+00   0.117E+00 0.449E-12 0.552E-01
   -.233E+00 -.341E+02 0.604E+03   0.152E+00 0.357E+02 -.604E+03   -.556E-01 -.161E+01 -.495E-01   0.820E-01 0.795E-03 0.508E-01
   0.155E+00 -.341E+02 0.604E+03   -.282E+00 0.357E+02 -.604E+03   0.498E-01 -.161E+01 -.440E-01   0.131E+00 0.433E-01 0.538E-01
   -.954E-01 0.362E+01 0.167E+04   0.352E-01 -.173E+01 -.167E+04   -.556E-01 -.180E+01 -.469E+00   0.626E-01 -.173E-01 -.103E-02
   -.248E-01 0.362E+01 0.167E+04   -.530E-01 -.173E+01 -.167E+04   0.522E-01 -.180E+01 -.469E+00   0.791E-01 -.174E-01 0.569E-01
   0.227E+00 -.157E-11 -.107E+04   -.741E-01 0.115E-13 0.107E+04   -.884E-01 0.000E+00 -.842E+00   -.669E-01 0.215E-13 0.743E-01
   -.138E+01 0.173E-11 -.107E+04   0.137E+01 0.497E-14 0.107E+04   -.489E-01 0.000E+00 -.839E+00   0.654E-01 0.191E-12 0.100E-01
   -.772E+00 0.448E-12 -.157E+02   0.822E+00 0.730E-14 0.138E+02   -.159E-01 0.000E+00 0.187E+01   -.231E-01 0.514E-12 0.760E-01
   -.355E-01 -.281E-12 -.165E+02   -.844E-01 0.141E-13 0.148E+02   0.187E-01 0.000E+00 0.168E+01   0.106E+00 0.144E-12 0.342E-01
   -.122E+01 0.410E+02 -.149E+04   0.132E+01 -.433E+02 0.148E+04   -.888E-01 0.226E+01 0.350E+01   -.800E-03 0.144E-01 0.301E-01
   0.195E+00 0.400E+02 -.149E+04   -.280E+00 -.423E+02 0.149E+04   0.384E-01 0.224E+01 0.295E+01   0.500E-01 0.159E-02 -.589E-02
   -.126E+01 0.309E+02 -.452E+03   0.130E+01 -.325E+02 0.452E+03   -.840E-01 0.160E+01 0.144E+00   0.463E-01 0.316E-02 0.543E-01
   0.868E+00 0.310E+02 -.452E+03   -.101E+01 -.326E+02 0.452E+03   0.398E-01 0.159E+01 0.224E+00   0.109E+00 0.203E-01 -.549E-02
   0.116E+01 -.527E-12 -.198E+04   -.115E+01 -.912E-14 0.201E+04   0.487E-01 0.000E+00 -.294E+02   -.684E-01 0.476E-12 0.150E-02
   -.160E+01 0.518E-12 -.198E+04   0.160E+01 -.251E-14 0.201E+04   -.348E-01 0.000E+00 -.294E+02   0.332E-01 0.194E-12 0.856E-02
   0.327E+00 -.116E-15 -.902E+03   -.319E+00 -.145E-13 0.909E+03   0.250E-01 0.000E+00 -.695E+01   -.268E-01 0.182E-12 0.749E-01
   -.102E+01 0.316E-12 -.903E+03   0.886E+00 -.149E-13 0.909E+03   0.631E-01 0.000E+00 -.690E+01   0.635E-01 -.119E-13 0.321E-01
   -.122E+01 -.410E+02 -.149E+04   0.132E+01 0.433E+02 0.148E+04   -.888E-01 -.226E+01 0.350E+01   -.800E-03 -.144E-01 0.301E-01
   0.195E+00 -.400E+02 -.149E+04   -.280E+00 0.423E+02 0.149E+04   0.384E-01 -.224E+01 0.295E+01   0.500E-01 -.159E-02 -.589E-02
   -.126E+01 -.309E+02 -.452E+03   0.130E+01 0.325E+02 0.452E+03   -.840E-01 -.160E+01 0.144E+00   0.463E-01 -.316E-02 0.543E-01
   0.868E+00 -.310E+02 -.452E+03   -.101E+01 0.326E+02 0.452E+03   0.398E-01 -.159E+01 0.224E+00   0.109E+00 -.203E-01 -.549E-02
   -.243E+01 -.931E-12 -.205E+04   0.198E+01 0.574E-14 0.208E+04   0.470E+00 0.000E+00 -.320E+02   0.112E-01 -.705E-13 -.643E-02
   0.201E+01 -.176E-12 -.205E+04   -.172E+01 0.152E-13 0.208E+04   -.283E+00 0.000E+00 -.321E+02   -.204E-01 -.342E-12 -.158E-02
   0.294E+00 -.390E-12 0.911E+03   -.161E+00 -.844E-13 -.910E+03   -.131E-01 0.000E+00 -.748E+00   -.131E+00 -.888E-12 0.109E+00
   -.130E+00 -.911E-12 0.910E+03   0.330E+00 -.123E-12 -.910E+03   0.102E-01 0.000E+00 -.747E+00   -.199E+00 -.132E-11 0.885E-01
   0.135E+00 -.317E-12 0.245E+04   -.526E-01 -.883E-13 -.245E+04   -.134E-01 0.000E+00 0.145E+01   -.803E-01 0.582E-12 0.102E+00
   0.349E-01 0.385E-12 0.245E+04   0.785E-01 -.567E-13 -.245E+04   0.138E-01 0.000E+00 0.145E+01   -.118E+00 0.121E-11 0.163E-01
   0.720E-01 -.328E-11 0.260E+04   -.921E-01 0.233E-14 -.259E+04   -.193E-03 0.000E+00 -.262E+01   0.202E-01 -.110E-11 0.124E+00
   0.122E+00 -.201E-11 0.260E+04   0.185E-01 0.710E-13 -.259E+04   0.331E-03 0.000E+00 -.261E+01   -.142E+00 -.875E-12 0.725E-01
   0.362E+00 0.147E-11 0.904E+03   -.425E+00 0.235E-13 -.904E+03   -.177E-02 0.000E+00 0.144E+00   0.626E-01 0.506E-12 0.984E-01
   0.133E+00 0.453E-12 0.904E+03   0.846E-01 -.141E-13 -.905E+03   -.696E-03 0.000E+00 0.121E+00   -.220E+00 0.100E-11 0.103E+00
   0.545E+00 -.171E-11 -.229E+04   -.556E+00 -.808E-13 0.229E+04   -.153E-01 0.000E+00 -.220E+01   0.211E-01 0.111E-11 -.253E-01
   0.152E+01 -.686E-14 -.229E+04   -.144E+01 0.488E-14 0.229E+04   0.118E-02 0.000E+00 -.222E+01   -.831E-01 0.159E-11 0.388E-01
[...]
   0.280E+00 0.410E+02 -.148E+04   -.270E+00 -.433E+02 0.148E+04   -.154E-01 0.224E+01 0.382E+01   0.170E-02 -.354E-02 -.401E-01
   0.103E+01 0.405E+02 -.149E+04   -.101E+01 -.427E+02 0.149E+04   0.394E-01 0.229E+01 0.303E+01   -.532E-01 -.346E-01 0.264E-01
   -.488E+00 0.309E+02 -.450E+03   0.626E+00 -.324E+02 0.450E+03   -.745E-01 0.159E+01 0.301E+00   -.522E-01 -.106E-01 -.797E-02
   0.471E+00 0.309E+02 -.451E+03   -.422E+00 -.325E+02 0.450E+03   0.636E-01 0.160E+01 0.296E+00   -.102E+00 0.128E-01 0.616E-01
   -.278E-01 -.441E-13 -.198E+04   0.409E-01 -.134E-13 0.201E+04   -.458E-01 0.000E+00 -.294E+02   0.282E-01 0.427E-12 -.339E-01
   0.648E+00 0.315E-11 -.198E+04   -.719E+00 0.133E-13 0.201E+04   0.759E-01 0.000E+00 -.294E+02   0.450E-02 0.114E-12 -.423E-01
   0.152E+01 0.880E-14 -.901E+03   -.154E+01 0.343E-14 0.908E+03   -.491E-01 0.000E+00 -.684E+01   0.651E-01 -.514E-12 -.313E-01
   -.462E+00 -.703E-12 -.900E+03   0.409E+00 0.176E-13 0.907E+03   0.152E+00 0.000E+00 -.682E+01   -.103E+00 -.629E-12 0.147E-01
   0.280E+00 -.410E+02 -.148E+04   -.270E+00 0.433E+02 0.148E+04   -.154E-01 -.224E+01 0.382E+01   0.170E-02 0.354E-02 -.401E-01
   0.103E+01 -.405E+02 -.149E+04   -.101E+01 0.427E+02 0.149E+04   0.394E-01 -.229E+01 0.303E+01   -.532E-01 0.346E-01 0.264E-01
   -.488E+00 -.309E+02 -.450E+03   0.626E+00 0.324E+02 0.450E+03   -.745E-01 -.159E+01 0.301E+00   -.522E-01 0.106E-01 -.797E-02
   0.471E+00 -.309E+02 -.451E+03   -.422E+00 0.325E+02 0.450E+03   0.636E-01 -.160E+01 0.296E+00   -.102E+00 -.128E-01 0.616E-01
   0.777E-01 0.422E-12 -.205E+04   -.308E+00 0.468E-14 0.208E+04   0.271E+00 0.000E+00 -.320E+02   -.278E-01 0.217E-12 -.418E-01
   0.457E+00 0.108E-11 -.205E+04   -.166E+00 0.671E-14 0.208E+04   -.331E+00 0.000E+00 -.321E+02   0.370E-01 -.121E-12 -.412E-01
   0.154E+00 0.372E-10 0.173E+03   -.216E-11 -.952E-13 0.455E-12   -.556E-01 -.178E-14 -.176E+03   -.195E-02 0.578E-12 0.330E+01

 POSITION                                       TOTAL-FORCE (eV/Angst)
      1.60107      3.23512      4.85268        -0.008332      0.000000     -0.316301
      4.80320      3.23512      4.85268         0.012474      0.000000     -0.316989
      1.60107      0.00000      1.61756        -0.011744      0.000000     -0.950491
      4.80320      0.00000      1.61756         0.010295      0.000000     -0.952554
      0.00000      3.23512      1.61756        -0.001030      0.000000      1.568367
      3.20213      3.23512      1.61756         0.000038      0.000000      1.583501
      0.00000      0.00000      4.85268         0.008291      0.000000     -0.080543
      3.20213      0.00000      4.85268        -0.014120      0.000000     -0.096551
      1.60286      3.23512     11.33551         0.000706      0.000000     -0.006222
      4.80605      3.23512     11.33621         0.001858      0.000000     -0.007191
      1.59976      0.00000      8.09834         0.004911      0.000000     -0.004377
      4.80172      0.00000      8.09582         0.001640      0.000000      0.003786
     -0.00001      3.23512      8.09806         0.000800      0.000000     -0.005154
      3.20154      3.23512      8.09891        -0.006675      0.000000     -0.002105
     12.81240      0.00000     11.42591         0.001466      0.000000     -0.015745
      3.20343      0.00000     11.42848         0.003057      0.000000     -0.005599
      0.00000      3.23512      3.61324        -0.002690      0.000000     -0.100841
      3.20213      3.23512      3.61324         0.000361      0.000000     -0.105235
      0.00000      0.00000      0.37812        -0.000858      0.000000      0.832843
      3.20213      0.00000      0.37812        -0.000165      0.000000      0.824067
      1.60107      5.23080      4.85268        -0.055078     -0.027813     -0.037043
      4.80320      5.23080      4.85268         0.051960     -0.028364     -0.035458
      1.60107      1.99568      1.61756        -0.054225     -0.073930     -0.671227
      4.80320      1.99568      1.61756         0.052535     -0.074032     -0.670045
      0.00000      3.23512      6.09212         0.004463      0.000000      0.306680
      3.20213      3.23512      6.09212        -0.009526      0.000000      0.322021
      0.00000      0.00000      2.85700        -0.003251      0.000000      0.190739
      3.20213      0.00000      2.85700         0.003848      0.000000      0.194933
      1.60107      1.23944      4.85268        -0.055078      0.027813     -0.037043
      4.80320      1.23944      4.85268         0.051960      0.028364     -0.035458
      1.60107      4.47456      1.61756        -0.054225      0.073930     -0.671227
      4.80320      4.47456      1.61756         0.052535      0.074032     -0.670045
     12.80943      3.23512     10.07948        -0.003552      0.000000     -0.003071
      3.20376      3.23512     10.08125         0.001094      0.000000     -0.008732
      0.00069      0.00000      6.85609         0.010415      0.000000     -0.001207
      3.19936      0.00000      6.85394         0.003581      0.000000     -0.004580
      1.60129      5.23268     11.28657         0.006352      0.002596     -0.011262
      4.80739      5.23406     11.29943         0.002714     -0.005393      0.012213
      1.59859      1.99033      8.09159         0.001680      0.001770     -0.003018
      4.80319      1.99014      8.08795         0.007169      0.001842     -0.005477
      0.00439      3.23512     12.51461        -0.008572      0.000000      0.003472
      3.20312      3.23512     12.51440        -0.005257      0.000000     -0.012801
     12.80579      0.00000      9.34047         0.004794      0.000000     -0.012888
      3.20297      0.00000      9.34235        -0.004822      0.000000     -0.009321
      1.60129      1.23756     11.28657         0.006352     -0.002596     -0.011262
      4.80739      1.23618     11.29943         0.002714      0.005393      0.012213
      1.59859      4.47991      8.09159         0.001680     -0.001770     -0.003018
      4.80319      4.48011      8.08795         0.007169     -0.001842     -0.005477
      3.17987      0.00000     13.22564         0.030999      0.000000     -0.016638
      0.01857      0.00000     13.22191        -0.013702      0.000000      0.003726
      8.00533      3.23512      4.85268        -0.012103      0.000000     -0.318892
     11.20747      3.23512      4.85268         0.010368      0.000000     -0.316331
      8.00533      0.00000      1.61756        -0.012084      0.000000     -0.953438
     11.20747      0.00000      1.61756         0.008651      0.000000     -0.951175
      6.40427      3.23512      1.61756        -0.001023      0.000000      1.572926
      9.60640      3.23512      1.61756        -0.001866      0.000000      1.581119
      6.40427      0.00000      4.85268        -0.002883      0.000000     -0.087178
      9.60640      0.00000      4.85268        -0.004496      0.000000     -0.109570
      8.00916      3.23512     11.32720        -0.006966      0.000000      0.013287
     11.21101      3.23512     11.33565        -0.001789      0.000000      0.015384
[...]
      9.60634      0.00000      6.85286        -0.004676      0.000000     -0.002776
      8.01012      5.23308     11.27172        -0.004860     -0.011595      0.018793
     11.21331      5.23310     11.29487         0.005482      0.005684     -0.003305
      8.00239      1.99096      8.08441         0.010829      0.003982      0.000868
     11.20947      1.99064      8.08530         0.009187     -0.004726     -0.000644
      6.41253      3.23512     12.50660        -0.005528      0.000000      0.004457
      9.60635      3.23512     12.50993         0.008376      0.000000      0.017484
      6.40262      0.00000      9.33755        -0.002288      0.000000     -0.012217
      9.60828      0.00000      9.33424        -0.004834      0.000000      0.001377
      8.01012      1.23716     11.27172        -0.004860      0.011595      0.018793
     11.21331      1.23714     11.29487         0.005482     -0.005684     -0.003305
      8.00239      4.47928      8.08441         0.010829     -0.003982      0.000868
     11.20947      4.47960      8.08530         0.009187      0.004726     -0.000644
      9.59627      0.00000     13.21364         0.011733      0.000000     -0.027609
      6.42872      0.00000     13.21627        -0.003599      0.000000     -0.001740
    total drift:                                0.096271      0.000000     -0.115985

  FREE ENERGIE OF THE ION-ELECTRON SYSTEM (eV)
  free  energy   TOTEN  =      -637.98644025 eV

  energy  without entropy=     -637.92886722  energy(sigma->0) =     -637.95765373

 d Force = 0.1037825E-02[ 0.414E-03, 0.166E-02]  d Energy = 0.1110553E-02-0.727E-04
 d Force =-0.2887888E+01[-0.287E+01,-0.290E+01]  d Ewald  =-0.2887902E+01 0.140E-04

 stress matrix after NEB project (eV)
    -21.71450      0.00000     -0.24867
      0.00000     -7.13695      0.00000
     -0.24867      0.00000     -6.38123
  FORCES: max atom, RMS     0.035182    0.009127
  FORCE total and by dimension    0.091274    0.030999
  Stress total and by dimension   23.733931   21.714501
 Quasi-Newton relaxation of ions (Broydens 2nd method)
  g(Force)  = 0.402E-03   g(Stress)= 0.000E+00

 retain information from N=  5 steps
 eigenvalues of (default step * inverse Hessian matrix)
  average eigenvalue of G=   3.1492
 eigenvalue spectrum of G is  6.5752  6.5752  0.9364  0.9364  0.7225

 reached required accuracy - stopping structural energy minimisation