 vasp.5.4.4.18Apr17-6-g9f103f2a35 (build Feb 25 2019 10:51:38) complex

 executed on             LinuxIFC date 2022.11.21  15:41:59

 INCAR:
 POTCAR:    PAW_PBE Ir 06Sep2000
 POTCAR:    PAW_PBE O 08Apr2002
 POTCAR:    PAW_PBE Ir 06Sep2000
 POTCAR:    PAW_PBE O 08Apr2002
 POTCAR:    PAW_PBE Ir 06Sep2000
   VRHFIN =Ir: s1d8

   TITEL  = PAW_PBE Ir 06Sep2000
   POMASS =  192.220; ZVAL   =    9.000    mass and valenz
   ENMAX  =  210.864; ENMIN  =  158.148 eV

 POTCAR:    PAW_PBE O 08Apr2002
   VRHFIN =O: s2p4

   TITEL  = PAW_PBE O 08Apr2002
   POMASS =   16.000; ZVAL   =    6.000    mass and valenz
   ENMAX  =  400.000; ENMIN  =  300.000 eV

 POTCAR:    PAW_PBE Ir 06Sep2000
   VRHFIN =Ir: s1d8

   TITEL  = PAW_PBE Ir 06Sep2000
   POMASS =  192.220; ZVAL   =    9.000    mass and valenz
   ENMAX  =  210.864; ENMIN  =  158.148 eV

 POTCAR:    PAW_PBE O 08Apr2002
   VRHFIN =O: s2p4

   TITEL  = PAW_PBE O 08Apr2002
   POMASS =   16.000; ZVAL   =    6.000    mass and valenz
   ENMAX  =  400.000; ENMIN  =  300.000 eV

 Optimization of the real space projectors (new method)

 maximal supplied QI-value         = 14.36
 optimisation between [QCUT,QGAM] = [ 11.35, 22.84] = [ 36.05,146.02] Ry
 Optimized for a Real-space Cutoff    1.52 Angstroem

   l    n(q)    QCUT    max X(q) W(low)/X(q) W(high)/X(q)  e(spline)
   2      9    11.346   134.116    0.47E-03    0.13E-03    0.92E-06
   2      9    11.346   130.192    0.47E-03    0.13E-03    0.92E-06
   0     10    11.346    60.310    0.74E-04    0.13E-03    0.69E-06
   0     10    11.346    39.218    0.68E-04    0.12E-03    0.65E-06
   1     10    11.346    18.439    0.15E-03    0.34E-04    0.20E-06
   1     10    11.346    12.760    0.12E-03    0.31E-04    0.16E-06
 Optimization of the real space projectors (new method)

[...]

   l    n(q)    QCUT    max X(q) W(low)/X(q) W(high)/X(q)  e(spline)
   2      9    11.346   134.116    0.47E-03    0.13E-03    0.92E-06
   2      9    11.346   130.192    0.47E-03    0.13E-03    0.92E-06
   0     10    11.346    60.310    0.74E-04    0.13E-03    0.69E-06
   0     10    11.346    39.218    0.68E-04    0.12E-03    0.65E-06
   1     10    11.346    18.439    0.15E-03    0.34E-04    0.20E-06
   1     10    11.346    12.760    0.12E-03    0.31E-04    0.16E-06
 Optimization of the real space projectors (new method)

 maximal supplied QI-value         = 24.76
 optimisation between [QCUT,QGAM] = [ 11.39, 22.77] = [ 36.31,145.25] Ry
 Optimized for a Real-space Cutoff    1.00 Angstroem

   l    n(q)    QCUT    max X(q) W(low)/X(q) W(high)/X(q)  e(spline)
   0      7    11.387    20.381    0.39E-03    0.13E-02    0.15E-06
   0      7    11.387    15.268    0.42E-03    0.14E-02    0.17E-06
   1      6    11.387     5.964    0.41E-03    0.11E-02    0.17E-06
   1      6    11.387     5.382    0.39E-03    0.87E-03    0.15E-06

  PAW_PBE Ir 06Sep2000                  :
  PAW_PBE O 08Apr2002                   :
  PAW_PBE Ir 06Sep2000                  :
  PAW_PBE O 08Apr2002                   :

 POSCAR: Ir  O Ir  O
  positions in cartesian coordinates
 exchange correlation table for  LEXCH =        9
   RHO(1)=    0.500       N(1)  =     2000
   RHO(2)=  100.500       N(2)  =     4000

 VTST: version 3.2, (02/03/18)

 CHAIN: initializing optimizer

 OPT: Using VASP QUASI-newton optimizer
 CHAIN: Read ICHAIN            0
 CHAIN: Running the NEB
 NEB:          SPRING     -5.000000
 NEB:          LCLIMB      T
 NEB:     LTANGENTOLD      F
 NEB:           LDNEB      F
 NEB:        LDNEBORG      F
 NEB:        LNEBCELL      F
 NEB:          EFIRST      0.000000
 NEB:           ELAST      0.000000

 POSCAR: Ir  O Ir  O
  positions in cartesian coordinates

 POSCAR: Ir  O Ir  O
  positions in cartesian coordinates

 ion  position               nearest neighbor table
   1  0.125  0.500  0.188-  21 2.00  29 2.00  17 2.02  25 2.02  26 2.02  18 2.02   2 3.20  52 3.20

   2  0.375  0.500  0.188-  22 2.00  30 2.00  26 2.02  18 2.02  67 2.02  75 2.02   1 3.20  51 3.20

[...]

  67  0.500  0.500  0.140-  55 2.00  51 2.02   2 2.02
  68  0.750  0.500  0.140-  56 2.00  52 2.02  51 2.02
  69  0.500  0.000  0.015-   4 2.02  53 2.02
  70  0.750  0.000  0.015-  53 2.02  54 2.02
  71  0.625  0.808  0.188-  51 2.00  57 2.02  58 2.02
  72  0.875  0.808  0.188-  52 2.00   7 2.02  58 2.02
  73  0.625  0.308  0.062-  53 2.00  55 2.02  56 2.02
  74  0.875  0.308  0.062-  54 2.00   5 2.02  56 2.02
  75  0.500  0.500  0.235-  63 2.00  51 2.02   2 2.02
  76  0.750  0.500  0.235-  64 2.00  52 2.02  51 2.02
  77  0.500  0.000  0.110-  57 2.00  53 2.02   4 2.02
  78  0.750  0.000  0.110-  58 2.00  54 2.02  53 2.02
  79  0.625  0.192  0.188-  51 2.00  57 2.02  58 2.02
  80  0.875  0.192  0.188-  52 2.00   7 2.02  58 2.02
  81  0.625  0.692  0.062-  53 2.00  55 2.02  56 2.02
  82  0.875  0.692  0.062-  54 2.00   5 2.02  56 2.02
  83  0.498  0.500  0.389-  63 1.98  59 2.03  10 2.04
  84  0.752  0.500  0.389-  64 1.98  59 2.03  60 2.04
  85  0.500  0.000  0.265-  57 2.00  61 2.03  12 2.03
  86  0.750  0.000  0.265-  58 2.00  61 2.03  62 2.04
  87  0.625  0.805  0.430-  59 1.98  65 2.00  66 2.00
  88  0.872  0.809  0.440-  60 2.00  15 2.04  66 2.05
  89  0.625  0.308  0.312-  61 1.99  63 2.03  64 2.03
  90  0.876  0.308  0.312-  62 1.99  13 2.02  64 2.03
  91  0.502  0.500  0.483-  59 1.99  10 1.99
  92  0.748  0.500  0.483-  59 1.99  60 1.99
  93  0.496  0.000  0.360-  12 2.00  65 2.03  61 2.05
  94  0.753  0.000  0.360-  62 2.00  66 2.03  61 2.05
  95  0.625  0.195  0.430-  59 1.98  65 2.00  66 2.00
  96  0.872  0.191  0.440-  60 2.00  15 2.04  66 2.05
  97  0.625  0.692  0.312-  61 1.99  63 2.03  64 2.03
  98  0.876  0.692  0.312-  62 1.99  13 2.02  64 2.03
  99  0.691  0.000  0.511- 100 1.69  66 1.98
 100  0.559  0.000  0.511-  99 1.69  65 1.99

  LATTYP: Found a simple orthorhombic cell.
 ALAT       =     6.4702430000
 B/A-ratio  =     1.9796060210
 C/A-ratio  =     4.0000000000

  Lattice vectors:

 A1 = (   0.0000000000,  -6.4702430000,   0.0000000000)
 A2 = ( -12.8085320000,   0.0000000000,   0.0000000000)
 A3 = (   0.0000000000,   0.0000000000, -25.8809720000)

Analysis of symmetry for initial positions (statically):
 Subroutine PRICEL returns:
 Original cell was already a primitive cell.

 Routine SETGRP: Setting up the symmetry group for a
 simple orthorhombic supercell.

 Subroutine GETGRP returns: Found  2 space group operations
 (whereof  2 operations were pure point group operations)
 out of a pool of  8 trial point group operations.

The static configuration has the point symmetry C_1h.

Analysis of symmetry for dynamics (positions and initial velocities):
 Subroutine PRICEL returns:
 Original cell was already a primitive cell.

[...]

The dynamic configuration has the point symmetry C_1h.

Analysis of constrained symmetry for selective dynamics:
 Subroutine PRICEL returns:
 Original cell was already a primitive cell.

[...]

The constrained configuration has the point symmetry C_1h.

Analysis of structural, dynamic, and magnetic symmetry:
 Subroutine PRICEL returns:
 Original cell was already a primitive cell.

 Routine SETGRP: Setting up the symmetry group for a
 simple orthorhombic supercell.

 Subroutine GETGRP returns: Found  2 space group operations
 (whereof  2 operations were pure point group operations)
 out of a pool of  8 trial point group operations.

The magnetic configuration has the point symmetry C_1h.

 Subroutine INISYM returns: Found  2 space group operations
 (whereof  2 operations are pure point group operations),
 and found     1 'primitive' translations

 KPOINTS: Automatic mesh

Automatic generation of k-mesh.
Space group operators:
 irot       det(A)        alpha          n_x          n_y          n_z        tau_x        tau_y        tau_z
    1     1.000000     0.000001     1.000000     0.000000     0.000000     0.000000     0.000000     0.000000
    2    -1.000000   180.000000     0.000000     1.000000     0.000000     0.000000     0.000000     0.000000

 Subroutine IBZKPT returns following result:

 Found      4 irreducible k-points:

 Following reciprocal coordinates:
            Coordinates               Weight
  0.000000  0.000000  0.000000      1.000000
  0.333333  0.000000  0.000000      2.000000
  0.000000  0.333333  0.000000      2.000000
  0.333333  0.333333  0.000000      4.000000

 Following cartesian coordinates:
            Coordinates               Weight
  0.000000  0.000000  0.000000      1.000000
  0.026024  0.000000  0.000000      2.000000
  0.000000  0.051518  0.000000      2.000000
  0.026024  0.051518  0.000000      4.000000

 SYSTEM =  unknown system
 POSCAR =  Ir  O Ir  O

 Startparameter for this run:
   NWRITE =      2    write-flag & timer
   PREC   = normal    normal or accurate (medium, high low for compatibility)
   ISTART =      0    job   : 0-new  1-cont  2-samecut
   ICHARG =      2    charge: 1-file 2-atom 10-const
   ISPIN  =      2    spin polarized calculation?
   LNONCOLLINEAR =      F non collinear calculations
   LSORBIT =      F    spin-orbit coupling
   INIWAV =      1    electr: 0-lowe 1-rand  2-diag
   LASPH  =      F    aspherical Exc in radial PAW
   METAGGA=      F    non-selfconsistent MetaGGA calc.

 Electronic Relaxation 1
   ENCUT  =  500.0 eV  36.75 Ry    6.06 a.u.  23.35 11.80 47.19*2*pi/ulx,y,z
   ENINI  =  500.0     initial cutoff
   ENAUG  =  605.4 eV  augmentation charge cutoff
   NELM   =     60;   NELMIN=  4; NELMDL= -5     # of ELM steps
   EDIFF  = 0.1E-04   stopping-criterion for ELM
   LREAL  =      T    real-space projection
   NLSPLINE    = F    spline interpolate recip. space projectors
   LCOMPAT=      F    compatible to vasp.4.4
   GGA_COMPAT  = T    GGA compatible to vasp.4.4-vasp.4.6
   LMAXPAW     = -100 max onsite density
   LMAXMIX     =    2 max onsite mixed and CHGCAR
   VOSKOWN=      0    Vosko Wilk Nusair interpolation
   ROPT   =   -0.00050  -0.00050  -0.00050  -0.00050
 Ionic relaxation
   EDIFFG = -.5E-01   stopping-criterion for IOM
   NSW    =    500    number of steps for IOM
   NBLOCK =      1;   KBLOCK =    500    inner block; outer block
   IBRION =      1    ionic relax: 0-MD 1-quasi-New 2-CG
   NFREE  =      0    steps in history (QN), initial steepest desc. (CG)
   ISIF   =      2    stress and relaxation
   IWAVPR =     11    prediction:  0-non 1-charg 2-wave 3-comb
   ISYM   =      2    0-nonsym 1-usesym 2-fastsym
   LCORR  =      T    Harris-Foulkes like correction to forces

   POTIM  = 0.5000    time-step for ionic-motion
   TEIN   =    0.0    initial temperature
   TEBEG  =    0.0;   TEEND  =   0.0 temperature during run
   SMASS  =  -3.00    Nose mass-parameter (am)
   estimated Nose-frequenzy (Omega)   =  0.10E-29 period in steps =****** mass=  -0.375E-26a.u.
   SCALEE = 1.0000    scale energy and forces
   NPACO  =    256;   APACO  = 16.0  distance and # of slots for P.C.
   PSTRESS=    0.0 pullay stress

  Mass of Ions in am
   POMASS = 192.22 16.00192.22 16.00
  Ionic Valenz
   ZVAL   =   9.00  6.00  9.00  6.00
  Atomic Wigner-Seitz radii
  virtual crystal weights
   VCA    =   1.00  1.00  1.00  1.00
   NELECT =     696.0000    total number of electrons
   NUPDOWN=      -1.0000    fix difference up-down

 DOS related values:
[...]
   0.437E+00 0.360E+01 0.167E+04   -.448E+00 -.173E+01 -.167E+04   0.620E-01 -.180E+01 -.474E+00   0.698E-02 0.200E-02 0.307E-01
   0.563E+00 0.465E-11 -.108E+04   -.913E+00 0.225E-12 0.108E+04   0.364E+00 0.000E+00 -.720E+00   -.753E-02 -.231E-12 -.210E-01
   0.523E+00 0.324E-12 -.108E+04   -.276E+00 0.515E-13 0.108E+04   -.259E+00 0.000E+00 -.807E+00   0.977E-02 0.104E-12 -.152E-01
   -.459E+01 0.369E-12 -.194E+02   0.462E+01 -.187E-11 0.176E+02   -.204E-01 0.000E+00 0.178E+01   -.905E-02 0.334E-12 0.239E-01
   0.486E+01 0.460E-13 -.194E+02   -.489E+01 -.372E-13 0.177E+02   0.840E-02 0.000E+00 0.175E+01   0.136E-01 -.698E-13 0.268E-01
   -.165E+00 0.376E+02 -.148E+04   0.158E+00 -.392E+02 0.148E+04   0.511E-02 0.160E+01 0.388E+01   -.124E-02 0.543E-02 -.198E-01
   0.113E+02 0.278E+02 -.154E+04   -.102E+02 -.291E+02 0.154E+04   -.108E+01 0.132E+01 -.913E+00   -.615E-02 -.713E-02 -.238E-01
   -.408E+00 0.318E+02 -.460E+03   0.474E+00 -.335E+02 0.460E+03   -.704E-01 0.165E+01 0.642E-01   -.349E-02 0.831E-03 0.575E-02
   0.922E+01 0.317E+02 -.452E+03   -.918E+01 -.333E+02 0.452E+03   -.655E-01 0.162E+01 0.368E+00   0.165E-01 -.485E-02 0.295E-02
   -.182E+01 0.111E-11 -.198E+04   0.215E+01 0.551E-13 0.201E+04   -.335E+00 0.000E+00 -.293E+02   -.596E-02 -.394E-12 -.175E-01
   0.257E+01 0.615E-12 -.198E+04   -.294E+01 -.127E-10 0.201E+04   0.372E+00 0.000E+00 -.293E+02   0.441E-02 0.507E-13 -.191E-01
   -.105E+01 0.112E-12 -.916E+03   0.154E+01 -.188E-11 0.923E+03   -.497E+00 0.000E+00 -.706E+01   -.754E-02 0.238E-12 -.874E-02
   0.156E+01 0.490E-12 -.916E+03   -.204E+01 -.276E-13 0.923E+03   0.450E+00 0.000E+00 -.705E+01   0.125E-01 -.711E-13 -.142E-01
   -.165E+00 -.376E+02 -.148E+04   0.158E+00 0.392E+02 0.148E+04   0.511E-02 -.160E+01 0.388E+01   -.124E-02 -.543E-02 -.198E-01
   0.113E+02 -.278E+02 -.154E+04   -.102E+02 0.291E+02 0.154E+04   -.108E+01 -.132E+01 -.913E+00   -.615E-02 0.713E-02 -.238E-01
   -.408E+00 -.318E+02 -.460E+03   0.474E+00 0.335E+02 0.460E+03   -.704E-01 -.165E+01 0.642E-01   -.349E-02 -.831E-03 0.575E-02
   0.922E+01 -.317E+02 -.452E+03   -.918E+01 0.333E+02 0.452E+03   -.655E-01 -.162E+01 0.368E+00   0.165E-01 0.485E-02 0.295E-02
   -.945E+01 -.651E-15 -.204E+04   0.843E+01 -.245E-14 0.207E+04   0.102E+01 0.000E+00 -.319E+02   -.244E-02 0.323E-13 -.194E-01
   0.943E+01 -.158E-12 -.204E+04   -.821E+01 -.290E-13 0.208E+04   -.121E+01 0.000E+00 -.320E+02   0.334E-02 0.507E-12 -.186E-01
   -.153E+00 -.302E-12 0.914E+03   0.160E+00 0.240E-13 -.913E+03   -.131E-01 0.000E+00 -.736E+00   -.232E-02 -.590E-12 0.755E-01
   -.325E+01 -.544E-12 0.910E+03   0.328E+01 0.238E-12 -.910E+03   -.135E-01 0.000E+00 -.743E+00   -.142E-01 -.315E-12 0.712E-01
   -.113E-01 -.891E-13 0.245E+04   0.132E-01 -.926E-13 -.245E+04   -.134E-01 0.000E+00 0.146E+01   0.679E-03 0.656E-12 0.500E-01
   -.644E+00 0.267E-12 0.245E+04   0.663E+00 -.102E-12 -.245E+04   0.200E-01 0.000E+00 0.145E+01   -.119E-01 0.111E-12 0.467E-01
   0.455E+00 -.185E-11 0.260E+04   -.466E+00 -.385E-14 -.259E+04   0.678E-02 0.000E+00 -.259E+01   0.706E-02 -.238E-12 0.494E-01
   -.477E+00 -.113E-11 0.260E+04   0.487E+00 0.840E-13 -.259E+04   -.707E-02 0.000E+00 -.257E+01   -.646E-02 -.448E-12 0.492E-01
   0.212E+01 -.131E-12 0.905E+03   -.210E+01 -.361E-13 -.905E+03   0.330E-01 0.000E+00 0.141E+00   0.106E-01 0.256E-12 0.756E-01
   -.231E+01 -.316E-14 0.905E+03   0.230E+01 -.359E-12 -.905E+03   -.425E-01 0.000E+00 0.114E+00   -.122E-01 0.532E-12 0.724E-01
   -.825E+00 0.372E-12 -.227E+04   0.837E+00 0.112E-12 0.228E+04   -.889E-02 0.000E+00 -.224E+01   -.175E-02 0.420E-12 -.421E-01
   -.228E+02 -.141E-11 -.230E+04   0.228E+02 0.326E-12 0.230E+04   -.162E-02 0.000E+00 -.222E+01   -.961E-03 -.260E-12 -.355E-01
[...]
   -.247E+00 0.651E+02 -.139E+04   0.205E+00 -.682E+02 0.138E+04   0.443E-01 0.303E+01 0.103E+02   0.433E-02 -.104E-01 -.403E-01
   -.108E+02 0.281E+02 -.154E+04   0.967E+01 -.295E+02 0.155E+04   0.115E+01 0.137E+01 -.101E+01   0.326E-02 -.534E-02 -.241E-01
   -.103E+01 0.307E+02 -.437E+03   0.113E+01 -.323E+02 0.436E+03   -.964E-01 0.158E+01 0.408E+00   -.660E-02 -.341E-02 -.134E-02
   -.797E+01 0.319E+02 -.453E+03   0.783E+01 -.336E+02 0.452E+03   0.144E+00 0.165E+01 0.389E+00   -.714E-02 -.108E-02 0.365E-02
   0.167E+02 0.136E-11 -.198E+04   -.160E+02 -.829E-14 0.201E+04   -.691E+00 0.000E+00 -.294E+02   -.874E-03 0.511E-12 -.280E-01
   -.175E+02 -.405E-11 -.198E+04   0.169E+02 0.640E-13 0.201E+04   0.581E+00 0.000E+00 -.293E+02   -.109E-02 -.520E-14 -.254E-01
   0.236E+02 0.237E-12 -.888E+03   -.224E+02 -.569E-13 0.894E+03   -.126E+01 0.000E+00 -.594E+01   -.449E-03 -.575E-13 -.412E-01
   -.248E+02 -.195E-12 -.887E+03   0.237E+02 -.189E-11 0.893E+03   0.108E+01 0.000E+00 -.584E+01   -.803E-02 0.334E-12 -.308E-01
   -.247E+00 -.651E+02 -.139E+04   0.205E+00 0.682E+02 0.138E+04   0.443E-01 -.303E+01 0.103E+02   0.433E-02 0.104E-01 -.403E-01
   -.108E+02 -.281E+02 -.154E+04   0.967E+01 0.295E+02 0.155E+04   0.115E+01 -.137E+01 -.101E+01   0.326E-02 0.534E-02 -.241E-01
   -.103E+01 -.307E+02 -.437E+03   0.113E+01 0.323E+02 0.436E+03   -.964E-01 -.158E+01 0.408E+00   -.660E-02 0.341E-02 -.134E-02
   -.797E+01 -.319E+02 -.453E+03   0.783E+01 0.336E+02 0.452E+03   0.144E+00 -.165E+01 0.389E+00   -.714E-02 0.108E-02 0.365E-02
   -.120E+03 -.285E-12 -.203E+04   0.127E+03 -.258E-13 0.206E+04   -.641E+01 0.000E+00 -.295E+02   0.116E-01 -.124E-12 -.204E-01
   0.120E+03 -.308E-12 -.203E+04   -.126E+03 0.213E-14 0.206E+04   0.633E+01 0.000E+00 -.294E+02   -.924E-02 -.517E-12 -.188E-01
   0.216E+00 0.127E-09 0.168E+03   -.459E-11 -.279E-12 -.455E-11   -.441E+00 -.178E-14 -.169E+03   0.152E-02 -.290E-12 0.145E+01

 POSITION                                       TOTAL-FORCE (eV/Angst)
      1.60107      3.23512      4.85268        -0.007141      0.000000     -0.317502
      4.80320      3.23512      4.85268         0.024497      0.000000     -0.316091
      1.60107      0.00000      1.61756        -0.009907      0.000000     -0.943509
      4.80320      0.00000      1.61756        -0.003731      0.000000     -0.949912
      0.00000      3.23512      1.61756         0.005215      0.000000      1.576055
      3.20213      3.23512      1.61756        -0.000395      0.000000      1.588420
      0.00000      0.00000      4.85268         0.077780      0.000000     -0.072130
      3.20213      0.00000      4.85268        -0.081990      0.000000     -0.075637
      1.60047      3.23512     11.34175        -0.005717      0.000000      0.009270
      4.80682      3.23512     11.35891         0.000416      0.000000      0.005689
      1.60002     -0.00000      8.10942        -0.005263      0.000000      0.005250
      4.79139     -0.00000      8.09071        -0.008224      0.000000     -0.006863
      0.00176      3.23512      8.10410         0.000459      0.000000      0.000766
      3.19944      3.23512      8.10354        -0.002854      0.000000      0.004041
     12.78729     -0.00000     11.45151         0.000420      0.000000      0.011802
      3.21704     -0.00000     11.45244        -0.005729      0.000000      0.008660
      0.00000      3.23512      3.61324        -0.000539      0.000000     -0.097825
      3.20213      3.23512      3.61324         0.002499      0.000000     -0.102733
      0.00000      0.00000      0.37812        -0.013425      0.000000      0.830635
      3.20213      0.00000      0.37812         0.018848      0.000000      0.821555
      1.60107      5.23080      4.85268        -0.051526     -0.035169     -0.050133
      4.80320      5.23080      4.85268         0.049879     -0.018834     -0.027346
      1.60107      1.99568      1.61756        -0.051330     -0.079909     -0.674689
      4.80320      1.99568      1.61756         0.059389     -0.072776     -0.675938
      0.00000      3.23512      6.09212         0.032007      0.000000      0.376919
      3.20213      3.23512      6.09212        -0.032932      0.000000      0.377544
      0.00000      0.00000      2.85700        -0.016900      0.000000      0.209226
      3.20213      0.00000      2.85700         0.024217      0.000000      0.213377
      1.60107      1.23944      4.85268        -0.051526      0.035169     -0.050133
      4.80320      1.23944      4.85268         0.049879      0.018834     -0.027346
      1.60107      4.47456      1.61756        -0.051330      0.079909     -0.674689
      4.80320      4.47456      1.61756         0.059389      0.072776     -0.675938
     12.80349      3.23512     10.09283         0.008389      0.000000      0.019708
      3.20761      3.23512     10.09040         0.000120      0.000000      0.006154
      0.00851     -0.00000      6.85420         0.001646      0.000000     -0.000236
      3.19194     -0.00000      6.85376        -0.011353      0.000000      0.004307
      1.59751      5.23727     11.29129        -0.001158     -0.004741      0.011588
      4.84133      5.23539     11.40126        -0.007900     -0.003457      0.008582
      1.59876      1.99034      8.10100        -0.005681     -0.000603      0.006301
      4.79827      1.99078      8.08319        -0.004330     -0.003465     -0.008213
      0.00254      3.23512     12.52719        -0.009316      0.000000      0.015883
      3.19917      3.23512     12.52956         0.005239      0.000000     -0.001183
     12.79820     -0.00000      9.35779        -0.006535      0.000000      0.002553
      3.20969     -0.00000      9.35899        -0.016428      0.000000     -0.014614
      1.59751      1.23297     11.29129        -0.001158      0.004741      0.011588
      4.84133      1.23486     11.40126        -0.007900      0.003457      0.008582
      1.59876      4.47991      8.10100        -0.005681      0.000603      0.006301
      4.79827      4.47946      8.08319        -0.004330      0.003465     -0.008213
      3.16342     -0.00000     13.24771        -0.005068      0.000000      0.003585
      0.04256     -0.00000     13.24552         0.017780      0.000000      0.005152
      8.00533      3.23512      4.85268        -0.006230      0.000000     -0.325833
     11.20747      3.23512      4.85268         0.004159      0.000000     -0.312241
      8.00533      0.00000      1.61756        -0.008643      0.000000     -0.946457
     11.20747      0.00000      1.61756         0.029117      0.000000     -0.950688
      6.40427      3.23512      1.61756         0.005172      0.000000      1.595702
      9.60640      3.23512      1.61756        -0.001028      0.000000      1.607723
      6.40427      0.00000      4.85268         0.057969      0.000000     -0.088040
      9.60640      0.00000      4.85268        -0.066974      0.000000     -0.112849
      8.00329      3.23512     11.28489         0.003334      0.000000     -0.005736
     11.20110      3.23512     11.35995        -0.000220      0.000000      0.007668
[...]
      9.60339     -0.00000      6.85437        -0.005209      0.000000     -0.000162
      8.00191      5.20800     11.08795         0.008858     -0.006346     -0.028476
     11.16457      5.23595     11.40203         0.001445     -0.002354     -0.002072
      8.00179      1.99321      8.08257        -0.002440      0.000775     -0.004321
     11.21405      1.99182      8.08307        -0.000694     -0.000914      0.003003
      6.43592      3.23512     12.50011        -0.004820      0.000000     -0.007206
      9.56848      3.23512     12.50264        -0.003931      0.000000     -0.001282
      6.35373     -0.00000      9.33083        -0.014836      0.000000     -0.021873
      9.64930     -0.00000      9.32751        -0.003064      0.000000      0.001848
      8.00191      1.26224     11.08795         0.008858      0.006346     -0.028476
     11.16457      1.23429     11.40203         0.001445      0.002354     -0.002072
      8.00179      4.47703      8.08257        -0.002440     -0.000775     -0.004321
     11.21405      4.47843      8.08307        -0.000694      0.000914      0.003003
      8.85651     -0.00000     13.15883         0.003836      0.000000     -0.025926
      7.15563     -0.00000     13.16301         0.003423      0.000000     -0.042776
    total drift:                               -0.223608      0.000000     -0.022757

  FREE ENERGIE OF THE ION-ELECTRON SYSTEM (eV)
  free  energy   TOTEN  =      -637.16868070 eV

  energy  without entropy=     -637.10017240  energy(sigma->0) =     -637.13442655

 d Force = 0.4396292E-03[ 0.373E-03, 0.506E-03]  d Energy = 0.5467281E-03-0.107E-03
 d Force =-0.6063363E+01[-0.606E+01,-0.607E+01]  d Ewald  =-0.6063362E+01-0.136E-05

 NEB: the previous image is higher in energy: F
 NEB: the next image is higher in energy    : F
 NEB: image is at an extrema
 NEB: diff energy (min, max):     0.135301  637.168681

 NEB: Tangent
      0.00000      0.00000      0.00000
      0.00000      0.00000      0.00000
      0.00000      0.00000      0.00000
      0.00000      0.00000      0.00000
      0.00000      0.00000      0.00000
      0.00000      0.00000      0.00000
      0.00000      0.00000      0.00000
      0.00000      0.00000      0.00000
      0.00749      0.00000     -0.00339
     -0.00625      0.00000     -0.00056
      0.00155      0.00000      0.00301
     -0.02551      0.00000     -0.00457
      0.00803      0.00000     -0.00831
     -0.00038      0.00000     -0.00321
     -0.00714      0.00000      0.01737
      0.02271      0.00000      0.02184
      0.00000      0.00000      0.00000
      0.00000      0.00000      0.00000
      0.00000      0.00000      0.00000
      0.00000      0.00000      0.00000
      0.00000      0.00000      0.00000
      0.00000      0.00000      0.00000
      0.00000      0.00000      0.00000
      0.00000      0.00000      0.00000
      0.00000      0.00000      0.00000
      0.00000      0.00000      0.00000
      0.00000      0.00000      0.00000
      0.00000      0.00000      0.00000
      0.00000      0.00000      0.00000
      0.00000      0.00000      0.00000
      0.00000      0.00000      0.00000
      0.00000      0.00000      0.00000
      0.01171      0.00000     -0.00228
      0.00051      0.00000      0.00573
      0.01224      0.00000     -0.01326
     -0.00950      0.00000     -0.00702
      0.01071      0.00452      0.00828
      0.01655     -0.01087      0.02265
      0.00265     -0.00091     -0.00020
     -0.00899      0.00014     -0.01037
      0.01802      0.00000     -0.00591
     -0.00570      0.00000      0.00152
      0.00618      0.00000      0.00372
     -0.00166      0.00000      0.00123
      0.01071     -0.00452      0.00828
      0.01655      0.01087      0.02265
      0.00265      0.00091     -0.00020
     -0.00899     -0.00014     -0.01037
     -0.00830      0.00000      0.01075
      0.02061      0.00000      0.01597
      0.00000      0.00000      0.00000
      0.00000      0.00000      0.00000
      0.00000      0.00000      0.00000
      0.00000      0.00000      0.00000
      0.00000      0.00000      0.00000
      0.00000      0.00000      0.00000
      0.00000      0.00000      0.00000
      0.00000      0.00000      0.00000
      0.00446      0.00000     -0.01984
      0.01857      0.00000     -0.01145
[...]
     -0.00237      0.00000     -0.00250
      0.00270     -0.03063      0.09058
     -0.00206     -0.00762      0.00179
      0.00317      0.00407      0.00724
      0.01654     -0.00008     -0.01986
      0.00240      0.00000     -0.00639
      0.01026      0.00000     -0.01715
     -0.01993      0.00000     -0.01557
      0.03022      0.00000     -0.01993
      0.00270      0.03063      0.09058
     -0.00206      0.00762      0.00179
      0.00317     -0.00407      0.00724
      0.01654      0.00008     -0.01986
     -0.61389      0.00000      0.23420
      0.65064      0.00000      0.22671

 NEB: forces: par spring, perp REAL, dneb     0.047775    0.100122    0.000000
 NEB: distance to prev, next image, angle between     0.234684    0.244239  159.683957
 NEB: projections on to tangent (spring, REAL)     0.047775   -0.012352

 stress matrix after NEB project (eV)
    -27.81323      0.00000      0.12751
      0.00000     -7.77861      0.00000
      0.12751      0.00000     -7.53865
  FORCES: max atom, RMS     0.041978    0.010088
  FORCE total and by dimension    0.100881    0.037175
  Stress total and by dimension   29.848722   27.813227
 Quasi-Newton relaxation of ions (Broydens 2nd method)
  g(Force)  = 0.232E-02   g(Stress)= 0.000E+00

 retain information from N= 10 steps
 eigenvalues of (default step * inverse Hessian matrix)
  average eigenvalue of G=   2.3254
 eigenvalue spectrum of G is  7.6994  7.6994  1.8815  1.8815  0.8975  0.8975  0.5983  0.5983  0.5504  0.5504

 reached required accuracy - stopping structural energy minimisation