 vasp.5.4.4.18Apr17-6-g9f103f2a35 (build Feb 25 2019 10:51:38) complex

 executed on             LinuxIFC date 2022.09.20  17:41:45

 INCAR:
 POTCAR:    PAW_PBE Ir 06Sep2000
 POTCAR:    PAW_PBE O 08Apr2002
 POTCAR:    PAW_PBE Ir 06Sep2000
 POTCAR:    PAW_PBE O 08Apr2002
 POTCAR:    PAW_PBE Ir 06Sep2000
 POTCAR:    PAW_PBE O 08Apr2002
 POTCAR:    PAW_PBE Ir 06Sep2000
 POTCAR:    PAW_PBE O 08Apr2002
 POTCAR:    PAW_PBE Ir 06Sep2000
   VRHFIN =Ir: s1d8

   TITEL  = PAW_PBE Ir 06Sep2000
   POMASS =  192.220; ZVAL   =    9.000    mass and valenz
   ENMAX  =  210.864; ENMIN  =  158.148 eV

 POTCAR:    PAW_PBE O 08Apr2002
   VRHFIN =O: s2p4

   TITEL  = PAW_PBE O 08Apr2002
   POMASS =   16.000; ZVAL   =    6.000    mass and valenz
   ENMAX  =  400.000; ENMIN  =  300.000 eV

 POTCAR:    PAW_PBE Ir 06Sep2000
   VRHFIN =Ir: s1d8

[...]

 POTCAR:    PAW_PBE Ir 06Sep2000
   VRHFIN =Ir: s1d8

   TITEL  = PAW_PBE Ir 06Sep2000
   POMASS =  192.220; ZVAL   =    9.000    mass and valenz
   ENMAX  =  210.864; ENMIN  =  158.148 eV

 POTCAR:    PAW_PBE O 08Apr2002
   VRHFIN =O: s2p4

   TITEL  = PAW_PBE O 08Apr2002
   POMASS =   16.000; ZVAL   =    6.000    mass and valenz
   ENMAX  =  400.000; ENMIN  =  300.000 eV

 Optimization of the real space projectors (new method)

 maximal supplied QI-value         = 14.36
 optimisation between [QCUT,QGAM] = [ 11.35, 22.84] = [ 36.05,146.02] Ry
 Optimized for a Real-space Cutoff    1.52 Angstroem

   l    n(q)    QCUT    max X(q) W(low)/X(q) W(high)/X(q)  e(spline)
   2      9    11.346   134.116    0.47E-03    0.13E-03    0.92E-06
   2      9    11.346   130.192    0.47E-03    0.13E-03    0.92E-06
   0     10    11.346    60.310    0.74E-04    0.13E-03    0.69E-06
   0     10    11.346    39.218    0.68E-04    0.12E-03    0.65E-06
   1     10    11.346    18.439    0.15E-03    0.34E-04    0.20E-06
   1     10    11.346    12.760    0.12E-03    0.31E-04    0.16E-06
 Optimization of the real space projectors (new method)

[...]

   l    n(q)    QCUT    max X(q) W(low)/X(q) W(high)/X(q)  e(spline)
   2      9    11.346   134.116    0.47E-03    0.13E-03    0.92E-06
   2      9    11.346   130.192    0.47E-03    0.13E-03    0.92E-06
   0     10    11.346    60.310    0.74E-04    0.13E-03    0.69E-06
   0     10    11.346    39.218    0.68E-04    0.12E-03    0.65E-06
   1     10    11.346    18.439    0.15E-03    0.34E-04    0.20E-06
   1     10    11.346    12.760    0.12E-03    0.31E-04    0.16E-06
 Optimization of the real space projectors (new method)

 maximal supplied QI-value         = 24.76
 optimisation between [QCUT,QGAM] = [ 11.39, 22.77] = [ 36.31,145.25] Ry
 Optimized for a Real-space Cutoff    1.00 Angstroem

   l    n(q)    QCUT    max X(q) W(low)/X(q) W(high)/X(q)  e(spline)
   0      7    11.387    20.381    0.39E-03    0.13E-02    0.15E-06
   0      7    11.387    15.268    0.42E-03    0.14E-02    0.17E-06
   1      6    11.387     5.964    0.41E-03    0.11E-02    0.17E-06
   1      6    11.387     5.382    0.39E-03    0.87E-03    0.15E-06

  PAW_PBE Ir 06Sep2000                  :
  PAW_PBE O 08Apr2002                   :
  PAW_PBE Ir 06Sep2000                  :
  PAW_PBE O 08Apr2002                   :
  PAW_PBE Ir 06Sep2000                  :
  PAW_PBE O 08Apr2002                   :
  PAW_PBE Ir 06Sep2000                  :
  PAW_PBE O 08Apr2002                   :

 POSCAR: Ir  O Ir  O Ir  O Ir  O
  positions in cartesian coordinates
 exchange correlation table for  LEXCH =        9
   RHO(1)=    0.500       N(1)  =     2000
   RHO(2)=  100.500       N(2)  =     4000

 VTST: version 3.2, (02/03/18)

 CHAIN: initializing optimizer

 OPT: Using VASP Conjugate-Gradient optimizer
 CHAIN: Read ICHAIN            0

 POSCAR: Ir  O Ir  O Ir  O Ir  O
  positions in cartesian coordinates

 ion  position               nearest neighbor table
   1  0.125  0.250  0.188-  21 2.00  29 2.00  17 2.02  25 2.02  26 2.02  18 2.02   2 3.20  50 3.20

   2  0.375  0.250  0.188-  22 2.00  30 2.00  26 2.02  18 2.02  65 2.02  73 2.02   1 3.20  49 3.20

[...]

 159  0.500  0.500  0.435- 187 1.96  85 2.02 142 2.02  38 2.02 189 2.02 112 3.20 160 3.20
 160  0.750  0.500  0.435- 188 1.96  86 2.02  85 2.02 189 2.02 190 2.02 159 3.20 111 3.20
 161  0.500  0.750  0.140- 149 2.00 145 2.02  98 2.02
 162  0.750  0.750  0.140- 150 2.00 146 2.02 145 2.02
 163  0.500  0.500  0.015- 100 2.02 147 2.02
 164  0.750  0.500  0.015- 147 2.02 148 2.02
 165  0.625  0.904  0.188- 145 2.00  56 2.02  55 2.02
 166  0.875  0.904  0.188- 146 2.00  56 2.02   7 2.02
 167  0.625  0.654  0.062- 147 2.00 149 2.02 150 2.02
 168  0.875  0.654  0.062- 148 2.00 101 2.02 150 2.02
 169  0.500  0.750  0.235- 157 2.01 145 2.02  98 2.02
 170  0.750  0.750  0.235- 158 2.01 146 2.02 145 2.02
 171  0.500  0.500  0.110- 151 2.00 147 2.02 100 2.02
 172  0.750  0.500  0.110- 152 2.00 148 2.02 147 2.02
 173  0.625  0.596  0.188- 145 2.00 151 2.02 152 2.02
 174  0.875  0.596  0.188- 146 2.00 103 2.02 152 2.02
 175  0.625  0.846  0.062-  51 2.00 149 2.02 150 2.02
 176  0.875  0.846  0.062-  52 2.00 101 2.02 150 2.02
 177  0.500  0.750  0.390- 157 1.99 153 2.04 106 2.04
 178  0.750  0.750  0.390- 158 1.99 154 2.04 153 2.04
 179  0.500  0.500  0.264- 151 1.97 108 2.03 155 2.03
 180  0.750  0.500  0.264- 152 1.97 155 2.03 156 2.03
 181  0.625  0.905  0.441- 153 2.01  64 2.02  63 2.02
 182  0.875  0.905  0.441- 154 2.01  64 2.02  15 2.02
 183  0.625  0.654  0.313- 155 2.00 157 2.02 158 2.02
 184  0.875  0.654  0.313- 156 2.00 109 2.02 158 2.02
 185  0.500  0.750  0.484- 106 1.99 153 1.99
 186  0.750  0.750  0.484- 153 1.99 154 1.99
 187  0.500  0.500  0.359- 159 1.96 155 2.02 108 2.02
 188  0.750  0.500  0.359- 160 1.96 156 2.02 155 2.02
 189  0.625  0.595  0.441- 153 2.01 159 2.02 160 2.02
 190  0.875  0.595  0.441- 154 2.01 111 2.02 160 2.02
 191  0.625  0.846  0.313-  59 2.00 157 2.02 158 2.02
 192  0.875  0.846  0.313-  60 2.00 109 2.02 158 2.02

  LATTYP: Found a simple orthorhombic cell.
 ALAT       =    12.8085320000
 B/A-ratio  =     1.0103020393
 C/A-ratio  =     2.0206040786

  Lattice vectors:

 A1 = (  12.8085320000,   0.0000000000,   0.0000000000)
 A2 = (   0.0000000000,  12.9404860000,   0.0000000000)
 A3 = (   0.0000000000,   0.0000000000,  25.8809720000)

Analysis of symmetry for initial positions (statically):
 Subroutine PRICEL returns:
 Original cell was already a primitive cell.

 Routine SETGRP: Setting up the symmetry group for a
 simple orthorhombic supercell.

 Subroutine GETGRP returns: Found  1 space group operations
 (whereof  1 operations were pure point group operations)
 out of a pool of  8 trial point group operations.

The static configuration has the point symmetry C_1 .

Analysis of symmetry for dynamics (positions and initial velocities):
 Subroutine PRICEL returns:
 Original cell was already a primitive cell.

[...]

The dynamic configuration has the point symmetry C_1 .

Analysis of constrained symmetry for selective dynamics:
 Subroutine PRICEL returns:
 Original cell was already a primitive cell.

[...]

The constrained configuration has the point symmetry C_1 .

Analysis of structural, dynamic, and magnetic symmetry:
 Subroutine PRICEL returns:
 Original cell was already a primitive cell.

 Routine SETGRP: Setting up the symmetry group for a
 simple orthorhombic supercell.

 Subroutine GETGRP returns: Found  1 space group operations
 (whereof  1 operations were pure point group operations)
 out of a pool of  8 trial point group operations.

The magnetic configuration has the point symmetry C_1 .

 Subroutine INISYM returns: Found  1 space group operations
 (whereof  1 operations are pure point group operations),
 and found     1 'primitive' translations

 KPOINTS: Automatic mesh

Automatic generation of k-mesh.
Space group operators:
 irot       det(A)        alpha          n_x          n_y          n_z        tau_x        tau_y        tau_z
    1     1.000000     0.000001     1.000000     0.000000     0.000000     0.000000     0.000000     0.000000

 Subroutine IBZKPT returns following result:

 Found      4 irreducible k-points:

 Following reciprocal coordinates:
            Coordinates               Weight
  0.000000  0.000000  0.000000      1.000000
  0.500000  0.000000  0.000000      1.000000
  0.000000  0.500000  0.000000      1.000000
  0.500000  0.500000  0.000000      1.000000

 Following cartesian coordinates:
            Coordinates               Weight
  0.000000  0.000000  0.000000      1.000000
  0.039036  0.000000  0.000000      1.000000
  0.000000  0.038638  0.000000      1.000000
  0.039036  0.038638  0.000000      1.000000

 SYSTEM =  unknown system
 POSCAR =  Ir  O Ir  O Ir  O Ir  O

 Startparameter for this run:
   NWRITE =      2    write-flag & timer
   PREC   = normal    normal or accurate (medium, high low for compatibility)
   ISTART =      0    job   : 0-new  1-cont  2-samecut
   ICHARG =      2    charge: 1-file 2-atom 10-const
   ISPIN  =      2    spin polarized calculation?
   LNONCOLLINEAR =      F non collinear calculations
   LSORBIT =      F    spin-orbit coupling
   INIWAV =      1    electr: 0-lowe 1-rand  2-diag
   LASPH  =      F    aspherical Exc in radial PAW
   METAGGA=      F    non-selfconsistent MetaGGA calc.

 Electronic Relaxation 1
   ENCUT  =  500.0 eV  36.75 Ry    6.06 a.u.  23.35 23.59 47.19*2*pi/ulx,y,z
   ENINI  =  500.0     initial cutoff
   ENAUG  =  605.4 eV  augmentation charge cutoff
   NELM   =     60;   NELMIN=  4; NELMDL= -5     # of ELM steps
   EDIFF  = 0.1E-04   stopping-criterion for ELM
   LREAL  =      T    real-space projection
   NLSPLINE    = F    spline interpolate recip. space projectors
   LCOMPAT=      F    compatible to vasp.4.4
   GGA_COMPAT  = T    GGA compatible to vasp.4.4-vasp.4.6
   LMAXPAW     = -100 max onsite density
   LMAXMIX     =    2 max onsite mixed and CHGCAR
   VOSKOWN=      0    Vosko Wilk Nusair interpolation
   ROPT   =   -0.00050  -0.00050  -0.00050  -0.00050
   ROPT   =   -0.00050  -0.00050  -0.00050  -0.00050
 Ionic relaxation
   EDIFFG = -.5E-01   stopping-criterion for IOM
   NSW    =    500    number of steps for IOM
   NBLOCK =      1;   KBLOCK =    500    inner block; outer block
   IBRION =      2    ionic relax: 0-MD 1-quasi-New 2-CG
   NFREE  =      1    steps in history (QN), initial steepest desc. (CG)
   ISIF   =      2    stress and relaxation
   IWAVPR =     11    prediction:  0-non 1-charg 2-wave 3-comb
   ISYM   =      2    0-nonsym 1-usesym 2-fastsym
   LCORR  =      T    Harris-Foulkes like correction to forces

   POTIM  = 0.5000    time-step for ionic-motion
   TEIN   =    0.0    initial temperature
   TEBEG  =    0.0;   TEEND  =   0.0 temperature during run
   SMASS  =  -3.00    Nose mass-parameter (am)
   estimated Nose-frequenzy (Omega)   =  0.10E-29 period in steps =****** mass=  -0.375E-26a.u.
   SCALEE = 1.0000    scale energy and forces
   NPACO  =    256;   APACO  = 16.0  distance and # of slots for P.C.
   PSTRESS=    0.0 pullay stress

  Mass of Ions in am
   POMASS = 192.22 16.00192.22 16.00192.22 16.00192.22 16.00
  Ionic Valenz
   ZVAL   =   9.00  6.00  9.00  6.00  9.00  6.00  9.00  6.00
  Atomic Wigner-Seitz radii
  virtual crystal weights
[...]
   -.115E-02 -.150E-01 0.257E+04   0.805E-03 -.102E-02 -.257E+04   0.559E-06 0.231E-04 -.254E+01   0.357E-03 0.161E-01 0.344E-01
   -.240E-02 -.257E-01 0.822E+03   0.730E-02 0.644E-03 -.823E+03   -.669E-04 0.534E-04 0.684E-01   -.498E-02 0.252E-01 0.143E+00
   -.442E-02 -.275E-01 0.822E+03   0.373E-02 0.237E-02 -.823E+03   0.663E-06 0.437E-04 0.647E-01   0.710E-03 0.253E-01 0.143E+00
   -.912E-02 -.596E-01 -.242E+04   0.233E-01 0.291E-01 0.242E+04   -.824E-03 0.228E-03 -.192E+01   0.231E-02 0.307E-01 -.747E-02
   0.143E-01 -.581E-01 -.242E+04   -.290E-01 0.274E-01 0.242E+04   0.685E-03 0.214E-03 -.192E+01   -.182E-02 0.307E-01 -.772E-02
   -.103E+01 -.873E-02 -.820E+03   0.103E+01 -.318E-02 0.820E+03   -.598E-02 -.177E-05 0.560E+00   -.672E-02 0.119E-01 0.139E+00
   0.102E+01 -.131E-01 -.820E+03   -.103E+01 0.132E-02 0.820E+03   0.576E-02 -.148E-03 0.560E+00   0.764E-02 0.120E-01 0.138E+00
   0.521E-01 -.573E-01 -.830E+03   -.486E-01 0.863E-02 0.830E+03   -.380E-02 0.259E-02 -.379E+00   -.585E-02 0.499E-01 0.122E+00
   -.172E-01 -.112E+00 -.830E+03   0.170E-01 0.626E-01 0.830E+03   0.153E-03 0.197E-02 -.361E+00   0.843E-03 0.504E-01 0.119E+00
   0.175E-01 -.336E-03 -.251E+04   -.149E-01 -.409E-02 0.251E+04   0.180E-03 -.593E-04 0.329E+01   -.292E-02 0.439E-02 0.184E-01
   -.849E-03 -.548E-02 -.251E+04   0.632E-03 0.114E-02 0.251E+04   0.884E-05 0.583E-04 0.330E+01   0.398E-03 0.432E-02 0.198E-01
   0.214E-02 -.162E-01 0.101E+04   0.101E-02 -.798E-03 -.101E+04   0.581E-04 -.487E-04 -.166E+01   -.324E-02 0.171E-01 0.891E-01
   -.209E-02 -.150E-01 0.101E+04   0.149E-02 -.203E-02 -.101E+04   0.238E-03 -.141E-04 -.166E+01   0.447E-03 0.171E-01 0.883E-01
   0.662E-03 -.115E-01 0.202E+04   0.263E-03 0.211E-03 -.205E+04   0.645E-04 -.614E-04 0.277E+02   -.963E-03 0.114E-01 -.366E-01
   -.422E-03 -.116E-01 0.202E+04   0.274E-03 0.260E-03 -.205E+04   0.405E-06 -.651E-04 0.277E+02   0.152E-03 0.114E-01 -.374E-01
   -.504E-01 0.354E+02 0.548E+03   0.528E-01 -.371E+02 -.548E+03   -.533E-01 0.171E+01 -.573E-01   -.237E-02 0.642E-02 0.112E+00
   0.482E-01 0.354E+02 0.548E+03   -.513E-01 -.371E+02 -.548E+03   0.534E-01 0.171E+01 -.574E-01   0.312E-02 0.640E-02 0.112E+00
   -.961E-03 -.371E+01 0.165E+04   0.296E-02 0.179E+01 -.165E+04   -.540E-01 0.185E+01 -.492E+00   -.143E-02 0.166E-01 0.194E-01
   -.330E-03 -.371E+01 0.165E+04   -.204E-02 0.179E+01 -.165E+04   0.540E-01 0.185E+01 -.492E+00   0.180E-02 0.167E-01 0.196E-01
   0.528E-03 -.226E-01 0.920E+02   0.209E-02 -.341E-02 -.890E+02   0.249E-02 -.196E-02 -.264E+01   -.413E-02 0.278E-01 0.122E+00
   -.556E-02 -.220E-01 0.915E+02   0.511E-02 -.298E-02 -.886E+02   -.174E-03 -.327E-02 -.263E+01   0.602E-03 0.279E-01 0.123E+00
   0.961E-03 -.171E-01 0.118E+04   0.121E-02 0.511E-03 -.118E+04   0.293E-04 -.232E-04 0.321E+00   -.217E-02 0.166E-01 0.597E-01
   -.128E-02 -.173E-01 0.118E+04   0.969E-03 0.767E-03 -.118E+04   -.966E-05 -.168E-04 0.328E+00   0.322E-03 0.166E-01 0.582E-01
   -.523E-01 -.354E+02 0.548E+03   0.547E-01 0.371E+02 -.548E+03   -.534E-01 -.171E+01 -.569E-01   -.239E-02 0.270E-01 0.967E-01
   0.460E-01 -.354E+02 0.548E+03   -.490E-01 0.371E+02 -.548E+03   0.534E-01 -.171E+01 -.569E-01   0.308E-02 0.271E-01 0.968E-01
   -.653E-03 0.369E+01 0.165E+04   0.266E-02 -.179E+01 -.165E+04   -.540E-01 -.185E+01 -.492E+00   -.144E-02 0.345E-02 0.262E-01
   -.323E-03 0.369E+01 0.165E+04   -.204E-02 -.179E+01 -.165E+04   0.540E-01 -.185E+01 -.492E+00   0.180E-02 0.338E-02 0.264E-01
   0.294E-01 -.521E-01 -.118E+04   -.279E-01 0.264E-01 0.118E+04   0.170E-02 -.789E-03 -.831E+00   -.268E-02 0.266E-01 0.503E-01
   -.320E-02 -.679E-01 -.118E+04   0.265E-02 0.434E-01 0.118E+04   0.185E-03 -.208E-02 -.763E+00   0.366E-03 0.268E-01 0.624E-01
   -.144E-01 -.121E-01 -.962E+02   0.211E-01 0.120E-02 0.942E+02   -.184E-02 -.657E-03 0.187E+01   -.377E-02 0.115E-01 0.116E+00
   -.443E-02 -.139E-01 -.967E+02   0.427E-02 0.257E-02 0.947E+02   -.385E-03 -.116E-03 0.186E+01   0.567E-03 0.115E-01 0.113E+00
   0.354E+00 -.490E+01 -.167E+04   -.390E+00 0.301E+01 0.168E+04   0.486E-01 0.187E+01 -.460E+01   -.219E-02 0.227E-01 -.586E-02
   -.356E+00 -.490E+01 -.167E+04   0.393E+00 0.301E+01 0.168E+04   -.486E-01 0.187E+01 -.460E+01   0.260E-02 0.228E-01 -.609E-02
   -.784E+00 0.322E+02 -.555E+03   0.855E+00 -.339E+02 0.555E+03   -.679E-01 0.166E+01 -.175E+00   -.116E-02 0.373E-01 0.893E-01
   0.779E+00 0.322E+02 -.555E+03   -.850E+00 -.339E+02 0.555E+03   0.678E-01 0.166E+01 -.174E+00   0.182E-02 0.375E-01 0.892E-01
   0.370E-02 -.202E-01 -.202E+04   -.196E-02 0.564E-02 0.205E+04   -.294E-03 -.107E-03 -.282E+02   -.129E-02 0.146E-01 -.283E-01
   -.386E-02 -.272E-01 -.202E+04   0.430E-02 0.119E-01 0.205E+04   -.545E-03 0.530E-03 -.281E+02   0.202E-03 0.147E-01 -.272E-01
   0.194E-01 -.111E-02 -.100E+04   -.130E-01 -.317E-02 0.100E+04   -.239E-02 -.953E-03 0.221E+01   -.325E-02 0.526E-02 0.955E-01
   -.258E-02 -.398E-02 -.100E+04   0.188E-02 -.157E-02 0.100E+04   0.196E-03 0.231E-03 0.236E+01   0.442E-03 0.522E-02 0.101E+00
   0.362E+00 0.487E+01 -.167E+04   -.398E+00 -.301E+01 0.168E+04   0.483E-01 -.187E+01 -.460E+01   -.233E-02 0.823E-02 0.115E-01
   -.361E+00 0.486E+01 -.167E+04   0.397E+00 -.301E+01 0.168E+04   -.486E-01 -.187E+01 -.460E+01   0.271E-02 0.817E-02 0.114E-01
   -.827E+00 -.323E+02 -.554E+03   0.904E+00 0.339E+02 0.554E+03   -.725E-01 -.166E+01 -.158E+00   -.712E-03 0.315E-01 0.882E-01
   0.806E+00 -.323E+02 -.554E+03   -.881E+00 0.339E+02 0.554E+03   0.697E-01 -.166E+01 -.158E+00   0.170E-02 0.315E-01 0.880E-01
   -.900E-01 -.269E-01 0.824E+03   0.889E-01 -.683E-02 -.823E+03   -.126E-01 -.253E-04 -.723E+00   0.325E-02 0.339E-01 0.158E+00
   0.980E-01 -.340E-01 0.824E+03   -.961E-01 0.309E-03 -.823E+03   0.126E-01 -.536E-04 -.723E+00   -.427E-02 0.339E-01 0.157E+00
   -.570E-03 -.234E-01 0.242E+04   0.194E-02 0.116E-02 -.243E+04   -.138E-01 0.192E-04 0.143E+01   0.526E-03 0.224E-01 0.231E-01
   0.222E-02 -.229E-01 0.242E+04   -.312E-02 0.662E-03 -.243E+04   0.138E-01 0.240E-04 0.143E+01   -.101E-02 0.224E-01 0.228E-01
   -.222E-02 -.150E-01 0.257E+04   -.266E-03 -.101E-02 -.257E+04   0.182E-04 0.219E-04 -.256E+01   0.251E-02 0.161E-01 0.361E-01
   0.132E-02 -.157E-01 0.257E+04   -.956E-03 -.328E-03 -.257E+04   -.199E-04 0.579E-05 -.254E+01   -.354E-03 0.161E-01 0.373E-01
   -.212E-03 -.315E-01 0.822E+03   -.470E-02 0.639E-02 -.823E+03   0.370E-04 0.102E-03 0.686E-01   0.498E-02 0.252E-01 0.143E+00
   0.640E-02 -.292E-01 0.822E+03   -.573E-02 0.406E-02 -.823E+03   -.594E-04 0.101E-03 0.643E-01   -.709E-03 0.252E-01 0.145E+00
   -.388E-01 -.596E-01 -.242E+04   0.501E-01 0.293E-01 0.242E+04   -.253E-03 0.294E-03 -.192E+01   0.553E-02 0.307E-01 -.101E-01
   0.334E-01 -.551E-01 -.242E+04   -.443E-01 0.249E-01 0.242E+04   0.318E-03 0.352E-03 -.192E+01   -.604E-02 0.306E-01 -.993E-02
   -.108E+01 -.441E-02 -.820E+03   0.108E+01 -.735E-02 0.820E+03   -.406E-02 0.599E-03 0.559E+00   0.279E-03 0.124E-01 0.137E+00
   0.111E+01 -.348E-02 -.820E+03   -.111E+01 -.853E-02 0.820E+03   0.209E-02 0.385E-04 0.561E+00   -.142E-02 0.121E-01 0.138E+00
[...]
   -.687E-02 0.192E-01 -.962E+02   0.356E-02 -.909E-02 0.942E+02   -.692E-03 0.153E-02 0.187E+01   0.383E-02 -.116E-01 0.137E+00
   0.703E-03 0.152E-01 -.968E+02   0.263E-03 -.537E-02 0.948E+02   -.310E-03 0.183E-02 0.186E+01   -.566E-03 -.116E-01 0.134E+00
   0.347E+00 -.485E+01 -.167E+04   -.386E+00 0.299E+01 0.168E+04   0.490E-01 0.187E+01 -.460E+01   0.189E-03 -.281E-02 0.120E-01
   -.345E+00 -.486E+01 -.167E+04   0.385E+00 0.300E+01 0.168E+04   -.487E-01 0.187E+01 -.460E+01   -.619E-03 -.283E-02 0.121E-01
   -.808E+00 0.323E+02 -.554E+03   0.873E+00 -.339E+02 0.555E+03   -.670E-01 0.166E+01 -.159E+00   0.309E-02 -.422E-01 0.963E-01
   0.803E+00 0.323E+02 -.554E+03   -.866E+00 -.339E+02 0.555E+03   0.662E-01 0.166E+01 -.159E+00   -.393E-02 -.421E-01 0.965E-01
   -.144E-01 0.249E-01 -.202E+04   0.142E-01 -.985E-02 0.205E+04   -.110E-02 -.347E-03 -.282E+02   0.132E-02 -.146E-01 -.259E-01
   0.447E-02 0.178E-01 -.202E+04   -.479E-02 -.355E-02 0.205E+04   0.434E-03 0.373E-03 -.281E+02   -.217E-03 -.146E-01 -.261E-01
   -.474E-02 0.872E-02 -.100E+04   -.240E-03 -.487E-02 0.100E+04   0.154E-02 0.144E-02 0.221E+01   0.305E-02 -.530E-02 0.736E-01
   -.129E-02 0.518E-02 -.100E+04   0.229E-02 -.308E-02 0.100E+04   0.707E-02 0.801E-02 0.236E+01   -.474E-03 -.540E-02 0.768E-01
   0.352E+00 0.488E+01 -.167E+04   -.392E+00 -.299E+01 0.168E+04   0.488E-01 -.187E+01 -.460E+01   0.281E-03 -.282E-01 -.541E-02
   -.349E+00 0.489E+01 -.167E+04   0.389E+00 -.299E+01 0.168E+04   -.487E-01 -.187E+01 -.460E+01   -.737E-03 -.281E-01 -.518E-02
   -.818E+00 -.322E+02 -.554E+03   0.885E+00 0.339E+02 0.554E+03   -.690E-01 -.166E+01 -.158E+00   0.332E-02 -.265E-01 0.970E-01
   0.815E+00 -.322E+02 -.554E+03   -.881E+00 0.339E+02 0.555E+03   0.687E-01 -.166E+01 -.158E+00   -.409E-02 -.263E-01 0.971E-01
   0.142E-01 0.248E-02 0.825E+02   0.300E-12 -.199E-12 0.841E-11   -.290E-01 -.327E-02 -.950E+02   -.972E-03 0.134E-02 0.127E+02

 POSITION                                       TOTAL-FORCE (eV/Angst)
      1.60107      3.23512      4.85268        -0.010589      0.000197     -0.241724
      4.80320      3.23512      4.85268         0.010661      0.000116     -0.241629
      1.60107      0.00000      1.61756        -0.011852      0.000181     -0.974019
      4.80320      0.00000      1.61756         0.012014      0.000192     -0.974005
      0.00000      3.23512      1.61756         0.000049      0.000117      1.594711
      3.20213      3.23512      1.61756         0.000092      0.000120      1.607845
      0.00000      0.00000      4.85268        -0.000061      0.000171     -0.355719
      3.20213      0.00000      4.85268         0.000102      0.000158     -0.358220
      1.60096      3.23512     11.36940         0.015704      0.000411     -0.013734
      4.80330      3.23512     11.36938        -0.015766      0.000292     -0.013496
      1.60086     -0.00001      8.07487        -0.005858      0.000003      0.015550
      4.80340     -0.00000      8.07489         0.006120     -0.000010      0.015202
      0.00015      3.23506      8.10530        -0.006086      0.003767      0.003956
      3.20213      3.23502      8.10519         0.000915      0.003396      0.026360
     -0.00000      0.00000     11.26190        -0.000124     -0.000106      0.029458
      3.20212      0.00000     11.26287         0.000272      0.000042      0.033390
      0.00000      3.23512      3.61324         0.000052      0.000060     -0.124374
      3.20213      3.23512      3.61324         0.000162      0.000064     -0.129620
      0.00000      0.00000      0.37812         0.000109      0.000025      0.795387
      3.20213      0.00000      0.37812         0.000086      0.000024      0.786039
      1.60107      5.23080      4.85268        -0.053289     -0.006103     -0.043034
      4.80320      5.23080      4.85268         0.053444     -0.006096     -0.043069
      1.60107      1.99568      1.61756        -0.053384     -0.050009     -0.689446
      4.80320      1.99568      1.61756         0.053541     -0.050005     -0.689449
      0.00000      3.23512      6.09212         0.001059     -0.000202      0.403371
      3.20213      3.23512      6.09212         0.000068     -0.000310      0.410698
      0.00000      0.00000      2.85700         0.000108      0.000027      0.221977
      3.20213      0.00000      2.85700         0.000086      0.000032      0.226690
      1.60107      1.23944      4.85268        -0.053312      0.006572     -0.043061
      4.80320      1.23944      4.85268         0.053494      0.006578     -0.043041
      1.60107      4.47456      1.61756        -0.053371      0.050131     -0.689527
      4.80320      4.47456      1.61756         0.053546      0.050143     -0.689518
      0.00000      3.23513     10.09980         0.000606      0.000120      0.035897
      3.20212      3.23516     10.10139         0.000080      0.000162      0.008946
     -0.00001      0.00001      6.83849         0.001170      0.000004     -0.042653
      3.20213      0.00000      6.83812         0.000103      0.000025      0.000606
      1.60220      5.24027     11.40371         0.010103      0.000235      0.024379
      4.80207      5.24027     11.40369        -0.009911      0.000312      0.024249
      1.59910      1.99645      8.09900         0.001996     -0.003151      0.015692
      4.80518      1.99644      8.09900        -0.001426     -0.003338      0.015762
     -0.00001      3.23511     12.55507         0.000236     -0.000069      0.008772
      3.20213      3.23509     12.55791         0.000180     -0.000051      0.019208
     -0.00006      0.00001      9.30238         0.000819      0.000027      0.000310
      3.20213     -0.00001      9.30495         0.000018     -0.000103     -0.005130
      1.60218      1.22999     11.40375         0.009842     -0.000304      0.024776
      4.80207      1.22998     11.40381        -0.009812     -0.000181      0.024886
      1.59897      4.47371      8.09855         0.003729      0.003250      0.015301
      4.80531      4.47371      8.09854        -0.002680      0.002469      0.015066
      8.00533      3.23512      4.85268        -0.010383      0.000222     -0.241480
     11.20747      3.23512      4.85268         0.010362      0.000198     -0.241416
      8.00533      0.00000      1.61756        -0.011814      0.000179     -0.974029
     11.20747      0.00000      1.61756         0.011975      0.000189     -0.974044
      6.40427      3.23512      1.61756         0.000124      0.000116      1.594734
      9.60640      3.23512      1.61756         0.000068      0.000120      1.607917
      6.40427      0.00000      4.85268         0.000181      0.000202     -0.355326
      9.60640      0.00000      4.85268        -0.000019      0.000201     -0.358168
      8.00522      3.23511     11.36937         0.016588      0.000614     -0.013810
     11.20759      3.23512     11.36940        -0.016569      0.000758     -0.014136
      8.00510     -0.00010      8.07486        -0.003345      0.001263      0.014432
     11.20775     -0.00001      8.07481         0.001072      0.000117      0.016688
[...]
      9.60641      9.70538     10.10133         0.000051     -0.000152      0.008266
      6.40428      6.47022      6.83849        -0.000086      0.000073     -0.042919
      9.60640      6.47021      6.83813         0.000172      0.000036      0.000441
      8.00647     11.71053     11.40379         0.009980     -0.000162      0.024628
     11.20633     11.71052     11.40375        -0.009776      0.000069      0.024624
      8.00324      8.46678      8.09855         0.001324     -0.003605      0.015295
     11.20954      8.46677      8.09856        -0.000712     -0.003363      0.015323
      6.40425      9.70539     12.55509         0.000145      0.000048      0.007773
      9.60640      9.70538     12.55790        -0.000015      0.000048      0.018696
      6.40427      6.47024      9.30234        -0.000308     -0.000013      0.000610
      9.60638      6.47020      9.30488         0.007680      0.004716     -0.003496
      8.00645      7.70018     11.40381         0.009753      0.000430      0.024414
     11.20634      7.70018     11.40386        -0.009662      0.000367      0.024643
      8.00324     10.94390      8.09853         0.001827      0.003454      0.015310
     11.20954     10.94389      8.09855        -0.001236      0.004510      0.015347
    total drift:                               -0.015830      0.000553      0.209025

  FREE ENERGIE OF THE ION-ELECTRON SYSTEM (eV)
  free  energy   TOTEN  =     -1230.08094815 eV

  energy  without entropy=    -1229.92064590  energy(sigma->0) =    -1230.00079702

 d Force = 0.3138304E-02[ 0.169E-02, 0.459E-02]  d Energy = 0.3927461E-02-0.789E-03
 d Force = 0.2625800E+03[ 0.263E+03, 0.263E+03]  d Ewald  = 0.2625800E+03 0.671E-05

 stress matrix after NEB project (eV)
    -36.03491      0.00946     -0.00150
      0.00946    -22.72088      0.00172
     -0.00150      0.00172     -4.03369
  FORCES: max atom, RMS     0.043111    0.015494
  FORCE total and by dimension    0.214685    0.043110
  Stress total and by dimension   42.790463   36.034909
 Conjugate gradient step on ions:
 trial-energy change:   -0.003927  1 .order   -0.003138   -0.004591   -0.001686
  (g-gl).g = 0.405E-02      g.g   = 0.428E-02  gl.gl    = 0.830E-02
 g(Force)  = 0.428E-02   g(Stress)= 0.000E+00 ortho     = 0.756E-03
 gamma     =   0.48807
 trial     =   0.98692
 opt step  =   1.18104  (harmonic =   1.55966) maximal distance =0.00468652
 next E    = -1230.081120   (d E  =  -0.00410)

 reached required accuracy - stopping structural energy minimisation