 vasp.5.4.4.18Apr17-6-g9f103f2a35 (build Feb 25 2019 10:51:38) complex

 executed on             LinuxIFC date 2023.03.14  11:38:47

 INCAR:
 POTCAR:    PAW_PBE Ir 06Sep2000
 POTCAR:    PAW_PBE O 08Apr2002
 POTCAR:    PAW_PBE Ir 06Sep2000
 POTCAR:    PAW_PBE O 08Apr2002
 POTCAR:    PAW_PBE Ir 06Sep2000
   VRHFIN =Ir: s1d8

   TITEL  = PAW_PBE Ir 06Sep2000
   POMASS =  192.220; ZVAL   =    9.000    mass and valenz
   ENMAX  =  210.864; ENMIN  =  158.148 eV

 POTCAR:    PAW_PBE O 08Apr2002
   VRHFIN =O: s2p4

   TITEL  = PAW_PBE O 08Apr2002
   POMASS =   16.000; ZVAL   =    6.000    mass and valenz
   ENMAX  =  400.000; ENMIN  =  300.000 eV

 POTCAR:    PAW_PBE Ir 06Sep2000
   VRHFIN =Ir: s1d8

   TITEL  = PAW_PBE Ir 06Sep2000
   POMASS =  192.220; ZVAL   =    9.000    mass and valenz
   ENMAX  =  210.864; ENMIN  =  158.148 eV

 POTCAR:    PAW_PBE O 08Apr2002
   VRHFIN =O: s2p4

   TITEL  = PAW_PBE O 08Apr2002
   POMASS =   16.000; ZVAL   =    6.000    mass and valenz
   ENMAX  =  400.000; ENMIN  =  300.000 eV

 Optimization of the real space projectors (new method)

 maximal supplied QI-value         = 14.36
 optimisation between [QCUT,QGAM] = [ 11.35, 22.84] = [ 36.05,146.02] Ry
 Optimized for a Real-space Cutoff    1.52 Angstroem

   l    n(q)    QCUT    max X(q) W(low)/X(q) W(high)/X(q)  e(spline)
   2      9    11.346   134.116    0.47E-03    0.13E-03    0.92E-06
   2      9    11.346   130.192    0.47E-03    0.13E-03    0.92E-06
   0     10    11.346    60.310    0.74E-04    0.13E-03    0.69E-06
   0     10    11.346    39.218    0.68E-04    0.12E-03    0.65E-06
   1     10    11.346    18.439    0.15E-03    0.34E-04    0.20E-06
   1     10    11.346    12.760    0.12E-03    0.31E-04    0.16E-06
 Optimization of the real space projectors (new method)

[...]

   l    n(q)    QCUT    max X(q) W(low)/X(q) W(high)/X(q)  e(spline)
   2      9    11.346   134.116    0.47E-03    0.13E-03    0.92E-06
   2      9    11.346   130.192    0.47E-03    0.13E-03    0.92E-06
   0     10    11.346    60.310    0.74E-04    0.13E-03    0.69E-06
   0     10    11.346    39.218    0.68E-04    0.12E-03    0.65E-06
   1     10    11.346    18.439    0.15E-03    0.34E-04    0.20E-06
   1     10    11.346    12.760    0.12E-03    0.31E-04    0.16E-06
 Optimization of the real space projectors (new method)

 maximal supplied QI-value         = 24.76
 optimisation between [QCUT,QGAM] = [ 11.39, 22.77] = [ 36.31,145.25] Ry
 Optimized for a Real-space Cutoff    1.00 Angstroem

   l    n(q)    QCUT    max X(q) W(low)/X(q) W(high)/X(q)  e(spline)
   0      7    11.387    20.381    0.39E-03    0.13E-02    0.15E-06
   0      7    11.387    15.268    0.42E-03    0.14E-02    0.17E-06
   1      6    11.387     5.964    0.41E-03    0.11E-02    0.17E-06
   1      6    11.387     5.382    0.39E-03    0.87E-03    0.15E-06

  PAW_PBE Ir 06Sep2000                  :
  PAW_PBE O 08Apr2002                   :
  PAW_PBE Ir 06Sep2000                  :
  PAW_PBE O 08Apr2002                   :

 POSCAR: Ir  O Ir  O
  positions in cartesian coordinates
 exchange correlation table for  LEXCH =        9
   RHO(1)=    0.500       N(1)  =     2000
   RHO(2)=  100.500       N(2)  =     4000

 VTST: version 3.2, (02/03/18)

 CHAIN: initializing optimizer

 OPT: Using VASP Conjugate-Gradient optimizer
 CHAIN: Read ICHAIN            0

 POSCAR: Ir  O Ir  O
  positions in cartesian coordinates

 ion  position               nearest neighbor table
   1  0.125  0.500  0.188-  21 2.00  29 2.00  17 2.02  25 2.02  26 2.02  18 2.02   2 3.20  52 3.20

   2  0.375  0.500  0.188-  22 2.00  30 2.00  26 2.02  18 2.02  67 2.02  75 2.02   1 3.20  51 3.20

[...]

  66  0.750  0.000  0.434-  93 1.94  87 2.02  94 2.02  88 2.02  95 2.02  65 3.21  15 3.21
  67  0.500  0.500  0.140-  55 2.00  51 2.02   2 2.02
  68  0.750  0.500  0.140-  56 2.00  52 2.02  51 2.02
  69  0.500  0.000  0.015-   4 2.02  53 2.02
  70  0.750  0.000  0.015-  53 2.02  54 2.02
  71  0.625  0.808  0.188-  51 2.00  57 2.02  58 2.02
  72  0.875  0.808  0.188-  52 2.00   7 2.02  58 2.02
  73  0.625  0.308  0.062-  53 2.00  55 2.02  56 2.02
  74  0.875  0.308  0.062-  54 2.00   5 2.02  56 2.02
  75  0.500  0.500  0.235-  63 2.00  51 2.02   2 2.02
  76  0.750  0.500  0.235-  64 2.01  52 2.02  51 2.02
  77  0.500  0.000  0.110-  57 2.00  53 2.02   4 2.02
  78  0.750  0.000  0.110-  58 2.00  54 2.02  53 2.02
  79  0.625  0.192  0.188-  51 2.00  57 2.02  58 2.02
  80  0.875  0.192  0.188-  52 2.00   7 2.02  58 2.02
  81  0.625  0.692  0.062-  53 2.00  55 2.02  56 2.02
  82  0.875  0.692  0.062-  54 2.00   5 2.02  56 2.02
  83  0.500  0.500  0.389-  63 1.98  10 2.03  59 2.04
  84  0.750  0.500  0.390-  64 1.98  60 2.04  59 2.04
  85  0.500  0.000  0.265-  57 1.99  61 2.01  12 2.03
  86  0.750  0.000  0.265-  58 1.99  61 2.04  62 2.04
  87  0.625  0.809  0.438-  59 2.00  66 2.02  65 2.03
  88  0.875  0.809  0.438-  60 2.00  66 2.02  15 2.03
  89  0.625  0.308  0.313-  61 1.99  63 2.02  64 2.03
  90  0.875  0.308  0.313-  62 1.99  13 2.02  64 2.03
  91  0.499  0.500  0.484-  10 1.98  59 1.99
  92  0.500  0.000  0.361-  61 2.02  12 2.03  65 2.10
  93  0.750  0.000  0.359-  66 1.94  62 2.02  61 2.02
  94  0.625  0.191  0.438-  59 2.00  66 2.02  65 2.03
  95  0.875  0.191  0.438-  60 2.00  66 2.02  15 2.03
  96  0.625  0.692  0.313-  61 1.99  63 2.02  64 2.03
  97  0.875  0.692  0.313-  62 1.99  13 2.02  64 2.03
  98  0.498  0.000  0.511-  65 1.79

  LATTYP: Found a simple orthorhombic cell.
 ALAT       =     6.4702430000
 B/A-ratio  =     1.9796060210
 C/A-ratio  =     4.0000000000

  Lattice vectors:

 A1 = (   0.0000000000,  -6.4702430000,   0.0000000000)
 A2 = ( -12.8085320000,   0.0000000000,   0.0000000000)
 A3 = (   0.0000000000,   0.0000000000, -25.8809720000)

Analysis of symmetry for initial positions (statically):
 Subroutine PRICEL returns:
 Original cell was already a primitive cell.

 Routine SETGRP: Setting up the symmetry group for a
 simple orthorhombic supercell.

 Subroutine GETGRP returns: Found  2 space group operations
 (whereof  2 operations were pure point group operations)
 out of a pool of  8 trial point group operations.

The static configuration has the point symmetry C_1h.

Analysis of symmetry for dynamics (positions and initial velocities):
 Subroutine PRICEL returns:
 Original cell was already a primitive cell.

[...]

The dynamic configuration has the point symmetry C_1h.

Analysis of constrained symmetry for selective dynamics:
 Subroutine PRICEL returns:
 Original cell was already a primitive cell.

[...]

The constrained configuration has the point symmetry C_1h.

Analysis of structural, dynamic, and magnetic symmetry:
 Subroutine PRICEL returns:
 Original cell was already a primitive cell.

 Routine SETGRP: Setting up the symmetry group for a
 simple orthorhombic supercell.

 Subroutine GETGRP returns: Found  2 space group operations
 (whereof  2 operations were pure point group operations)
 out of a pool of  8 trial point group operations.

The magnetic configuration has the point symmetry C_1h.

 Subroutine INISYM returns: Found  2 space group operations
 (whereof  2 operations are pure point group operations),
 and found     1 'primitive' translations

 KPOINTS: Automatic mesh

Automatic generation of k-mesh.
Space group operators:
 irot       det(A)        alpha          n_x          n_y          n_z        tau_x        tau_y        tau_z
    1     1.000000     0.000001     1.000000     0.000000     0.000000     0.000000     0.000000     0.000000
    2    -1.000000   180.000000     0.000000     1.000000     0.000000     0.000000     0.000000     0.000000

 Subroutine IBZKPT returns following result:

 Found      4 irreducible k-points:

 Following reciprocal coordinates:
            Coordinates               Weight
  0.000000  0.000000  0.000000      1.000000
  0.333333  0.000000  0.000000      2.000000
  0.000000  0.333333  0.000000      2.000000
  0.333333  0.333333  0.000000      4.000000

 Following cartesian coordinates:
            Coordinates               Weight
  0.000000  0.000000  0.000000      1.000000
  0.026024  0.000000  0.000000      2.000000
  0.000000  0.051518  0.000000      2.000000
  0.026024  0.051518  0.000000      4.000000

 SYSTEM =  unknown system
 POSCAR =  Ir  O Ir  O

 Startparameter for this run:
   NWRITE =      2    write-flag & timer
   PREC   = normal    normal or accurate (medium, high low for compatibility)
   ISTART =      0    job   : 0-new  1-cont  2-samecut
   ICHARG =      2    charge: 1-file 2-atom 10-const
   ISPIN  =      2    spin polarized calculation?
   LNONCOLLINEAR =      F non collinear calculations
   LSORBIT =      F    spin-orbit coupling
   INIWAV =      1    electr: 0-lowe 1-rand  2-diag
   LASPH  =      F    aspherical Exc in radial PAW
   METAGGA=      F    non-selfconsistent MetaGGA calc.

 Electronic Relaxation 1
   ENCUT  =  500.0 eV  36.75 Ry    6.06 a.u.  23.35 11.80 47.19*2*pi/ulx,y,z
   ENINI  =  500.0     initial cutoff
   ENAUG  =  605.4 eV  augmentation charge cutoff
   NELM   =     60;   NELMIN=  4; NELMDL= -5     # of ELM steps
   EDIFF  = 0.1E-04   stopping-criterion for ELM
   LREAL  =      T    real-space projection
   NLSPLINE    = F    spline interpolate recip. space projectors
   LCOMPAT=      F    compatible to vasp.4.4
   GGA_COMPAT  = T    GGA compatible to vasp.4.4-vasp.4.6
   LMAXPAW     = -100 max onsite density
   LMAXMIX     =    2 max onsite mixed and CHGCAR
   VOSKOWN=      0    Vosko Wilk Nusair interpolation
   ROPT   =   -0.00050  -0.00050  -0.00050  -0.00050
 Ionic relaxation
   EDIFFG = -.5E-01   stopping-criterion for IOM
   NSW    =    500    number of steps for IOM
   NBLOCK =      1;   KBLOCK =    500    inner block; outer block
   IBRION =      2    ionic relax: 0-MD 1-quasi-New 2-CG
   NFREE  =      1    steps in history (QN), initial steepest desc. (CG)
   ISIF   =      2    stress and relaxation
   IWAVPR =     11    prediction:  0-non 1-charg 2-wave 3-comb
   ISYM   =      2    0-nonsym 1-usesym 2-fastsym
   LCORR  =      T    Harris-Foulkes like correction to forces

   POTIM  = 0.5000    time-step for ionic-motion
   TEIN   =    0.0    initial temperature
   TEBEG  =    0.0;   TEEND  =   0.0 temperature during run
   SMASS  =  -3.00    Nose mass-parameter (am)
   estimated Nose-frequenzy (Omega)   =  0.10E-29 period in steps =****** mass=  -0.375E-26a.u.
   SCALEE = 1.0000    scale energy and forces
   NPACO  =    256;   APACO  = 16.0  distance and # of slots for P.C.
   PSTRESS=    0.0 pullay stress

  Mass of Ions in am
   POMASS = 192.22 16.00192.22 16.00
  Ionic Valenz
   ZVAL   =   9.00  6.00  9.00  6.00
  Atomic Wigner-Seitz radii
  virtual crystal weights
   VCA    =   1.00  1.00  1.00  1.00
   NELECT =     684.0000    total number of electrons
   NUPDOWN=      -1.0000    fix difference up-down

 DOS related values:
   EMIN   =  10.00;   EMAX   =-10.00  energy-range for DOS
   EFERMI =   0.00
   ISMEAR =     0;   SIGMA  =   0.05  broadening in eV -4-tet -1-fermi 0-gaus

 Electronic relaxation 2 (details)
   IALGO  =     68    algorithm
   LDIAG  =      T    sub-space diagonalisation (order eigenvalues)
[...]
   0.111E+01 -.127E-12 0.243E+04   -.114E+01 -.511E-13 -.244E+04   -.172E-01 0.000E+00 0.146E+01   0.383E-01 -.127E-12 -.964E-02
   -.115E+01 -.141E-12 0.243E+04   0.115E+01 -.734E-13 -.244E+04   0.173E-01 0.000E+00 0.146E+01   -.614E-02 -.883E-15 0.194E-02
   0.163E+01 0.153E-11 0.258E+04   -.167E+01 0.278E-13 -.258E+04   0.188E-01 0.000E+00 -.252E+01   0.310E-01 0.431E-12 -.223E-01
   -.258E-01 0.131E-12 0.258E+04   0.399E-02 0.767E-13 -.258E+04   -.609E-04 0.000E+00 -.255E+01   0.221E-01 0.184E-12 -.283E-02
   0.680E+01 -.121E-12 0.859E+03   -.685E+01 0.462E-13 -.859E+03   -.544E-01 0.000E+00 0.186E+00   0.428E-01 0.462E-12 0.228E-01
   -.330E-01 -.103E-11 0.864E+03   0.810E-03 -.171E-13 -.864E+03   0.105E-02 0.000E+00 0.156E+00   0.331E-01 -.858E-13 0.285E-01
   0.438E+02 0.821E-13 -.232E+04   -.436E+02 0.459E-13 0.232E+04   -.224E+00 0.000E+00 -.214E+01   0.462E-01 0.624E-13 0.224E-01
   -.438E+02 0.608E-12 -.232E+04   0.436E+02 -.254E-13 0.232E+04   0.220E+00 0.000E+00 -.214E+01   -.224E-01 -.274E-12 0.105E-01
   0.203E+02 0.115E-13 -.750E+03   -.202E+02 -.148E-14 0.750E+03   -.197E+00 0.000E+00 -.423E+00   0.525E-01 0.158E-12 0.491E-01
   -.205E+02 0.933E-14 -.750E+03   0.203E+02 0.147E-13 0.750E+03   0.200E+00 0.000E+00 -.421E+00   -.818E-02 0.111E-12 0.409E-01
   0.304E+02 0.897E-12 -.748E+03   -.304E+02 0.568E-13 0.748E+03   -.128E+00 0.000E+00 -.115E+00   0.441E-01 -.144E-12 0.574E-01
   -.121E+00 0.980E-12 -.731E+03   0.902E-01 0.578E-13 0.731E+03   0.114E-02 0.000E+00 -.293E+00   0.312E-01 -.639E-13 0.535E-01
   0.988E+02 -.189E-11 -.232E+04   -.986E+02 -.414E-13 0.232E+04   -.229E+00 0.000E+00 -.207E+01   0.382E-01 -.247E-12 0.278E-01
   0.149E-01 -.238E-12 -.229E+04   -.327E-01 -.352E-13 0.229E+04   -.521E-04 0.000E+00 -.199E+01   0.170E-01 0.390E-12 0.574E-02
   0.267E+01 -.299E-12 0.103E+04   -.273E+01 -.129E-13 -.103E+04   0.368E-01 0.000E+00 -.150E+01   0.301E-01 0.207E-13 -.816E-02
   -.292E-01 -.369E-12 0.103E+04   0.600E-02 -.516E-14 -.103E+04   -.465E-04 0.000E+00 -.162E+01   0.239E-01 -.774E-13 0.411E-02
   0.736E+00 -.218E-11 0.202E+04   -.756E+00 0.104E-13 -.205E+04   0.220E-01 0.000E+00 0.278E+02   0.207E-01 -.267E-12 -.190E-01
   -.136E-01 0.756E-12 0.202E+04   0.148E-02 0.945E-14 -.205E+04   -.242E-03 0.000E+00 0.277E+02   0.125E-01 -.798E-13 0.729E-03
   0.306E+01 0.337E+02 0.577E+03   -.307E+01 -.354E+02 -.577E+03   -.656E-01 0.164E+01 -.309E-01   0.360E-01 0.645E-02 0.157E-01
   -.312E+01 0.337E+02 0.577E+03   0.310E+01 -.354E+02 -.577E+03   0.650E-01 0.164E+01 -.315E-01   -.349E-02 0.174E-02 0.190E-01
   0.747E+00 -.356E+01 0.166E+04   -.768E+00 0.172E+01 -.166E+04   -.564E-01 0.179E+01 -.522E+00   0.254E-01 -.179E-03 -.721E-02
   -.774E+00 -.356E+01 0.166E+04   0.772E+00 0.172E+01 -.166E+04   0.561E-01 0.179E+01 -.522E+00   -.237E-02 -.888E-03 0.908E-03
   0.941E+01 -.145E-12 0.130E+03   -.952E+01 -.972E-16 -.128E+03   0.118E+00 0.000E+00 -.200E+01   0.322E-01 -.561E-12 0.305E-01
   -.338E-01 0.167E-12 0.138E+03   0.727E-02 0.254E-14 -.136E+03   0.172E-02 0.000E+00 -.207E+01   0.265E-01 0.145E-12 0.264E-01
   0.181E+01 -.360E-12 0.120E+04   -.184E+01 0.324E-13 -.120E+04   0.186E-01 0.000E+00 0.313E+00   0.288E-01 -.219E-13 -.510E-02
   -.231E-01 -.701E-13 0.120E+04   0.450E-02 0.156E-13 -.120E+04   -.840E-03 0.000E+00 0.246E+00   0.192E-01 -.150E-12 0.326E-02
   0.306E+01 -.337E+02 0.577E+03   -.307E+01 0.354E+02 -.577E+03   -.656E-01 -.164E+01 -.309E-01   0.360E-01 -.645E-02 0.157E-01
   -.312E+01 -.337E+02 0.577E+03   0.310E+01 0.354E+02 -.577E+03   0.650E-01 -.164E+01 -.315E-01   -.349E-02 -.174E-02 0.190E-01
   0.747E+00 0.356E+01 0.166E+04   -.768E+00 -.172E+01 -.166E+04   -.564E-01 -.179E+01 -.522E+00   0.254E-01 0.179E-03 -.721E-02
   -.774E+00 0.356E+01 0.166E+04   0.772E+00 -.172E+01 -.166E+04   0.561E-01 -.179E+01 -.522E+00   -.237E-02 0.888E-03 0.908E-03
   0.513E+02 -.246E-12 -.112E+04   -.505E+02 0.174E-13 0.112E+04   -.794E+00 0.000E+00 -.120E+01   0.365E-01 0.157E-12 0.395E-01
   -.691E-01 0.694E-12 -.110E+04   0.604E-01 -.145E-16 0.110E+04   -.454E-02 0.000E+00 -.742E+00   0.190E-01 -.223E-12 0.396E-01
   0.962E+01 0.105E-12 -.587E+02   -.843E+01 0.249E-13 0.563E+02   -.121E+01 0.000E+00 0.244E+01   0.315E-01 0.492E-12 0.322E-01
   -.360E-01 0.771E-12 -.505E+02   0.948E-02 0.458E-14 0.486E+02   0.201E-03 0.000E+00 0.185E+01   0.259E-01 -.397E-13 0.340E-01
   0.298E+02 0.401E+02 -.151E+04   -.299E+02 -.423E+02 0.151E+04   0.101E+00 0.219E+01 0.355E+01   0.250E-01 -.100E-01 0.127E-01
   -.298E+02 0.401E+02 -.151E+04   0.299E+02 -.423E+02 0.151E+04   -.927E-01 0.219E+01 0.356E+01   -.988E-02 -.153E-01 0.351E-02
   0.113E+02 0.333E+02 -.486E+03   -.112E+02 -.349E+02 0.485E+03   -.781E-01 0.165E+01 0.662E+00   0.355E-01 -.631E-02 0.359E-01
   -.113E+02 0.333E+02 -.486E+03   0.113E+02 -.349E+02 0.485E+03   0.828E-01 0.165E+01 0.673E+00   -.569E-02 -.112E-01 0.306E-01
   0.747E+02 -.281E-12 -.199E+04   -.744E+02 -.143E-14 0.202E+04   -.321E+00 0.000E+00 -.292E+02   0.298E-01 0.115E-12 0.547E-03
   0.620E-02 0.204E-11 -.199E+04   -.166E-01 0.158E-13 0.201E+04   -.128E-02 0.000E+00 -.293E+02   0.127E-01 -.291E-12 -.216E-01
   0.314E+02 0.914E-12 -.963E+03   -.306E+02 0.365E-14 0.970E+03   -.814E+00 0.000E+00 -.726E+01   0.327E-01 -.358E-13 0.361E-01
   -.151E-01 -.799E-12 -.936E+03   -.459E-02 0.307E-14 0.943E+03   -.236E-02 0.000E+00 -.733E+01   0.218E-01 0.181E-12 0.221E-01
   0.298E+02 -.401E+02 -.151E+04   -.299E+02 0.423E+02 0.151E+04   0.101E+00 -.219E+01 0.355E+01   0.250E-01 0.100E-01 0.127E-01
   -.298E+02 -.401E+02 -.151E+04   0.299E+02 0.423E+02 0.151E+04   -.927E-01 -.219E+01 0.356E+01   -.988E-02 0.153E-01 0.351E-02
   0.113E+02 -.333E+02 -.486E+03   -.112E+02 0.349E+02 0.485E+03   -.781E-01 -.165E+01 0.662E+00   0.355E-01 0.631E-02 0.359E-01
   -.113E+02 -.333E+02 -.486E+03   0.113E+02 0.349E+02 0.485E+03   0.828E-01 -.165E+01 0.673E+00   -.569E-02 0.112E-01 0.306E-01
   0.124E-01 0.351E-12 -.204E+04   -.145E-01 -.719E-14 0.207E+04   -.264E-02 0.000E+00 -.321E+02   0.585E-02 0.243E-12 -.187E-01
   0.758E+02 -.105E-12 -.203E+04   -.751E+02 0.145E-13 0.207E+04   -.715E+00 0.000E+00 -.316E+02   0.155E-01 -.210E-12 -.393E-02
   -.575E+01 0.698E-12 0.859E+03   0.589E+01 -.781E-13 -.859E+03   -.350E-01 0.000E+00 -.640E+00   -.542E-01 0.281E-12 0.221E-01
   0.583E+01 -.960E-12 0.859E+03   -.592E+01 -.888E-13 -.859E+03   0.350E-01 0.000E+00 -.640E+00   0.593E-02 -.115E-11 0.182E-01
   -.111E+01 -.427E-12 0.243E+04   0.117E+01 -.880E-13 -.243E+04   -.952E-02 0.000E+00 0.144E+01   -.424E-01 -.486E-12 -.117E-01
   0.115E+01 0.399E-12 0.243E+04   -.118E+01 -.580E-13 -.243E+04   0.949E-02 0.000E+00 0.144E+01   0.103E-01 -.672E-12 -.231E-01
   -.163E+01 -.185E-11 0.258E+04   0.167E+01 0.477E-14 -.258E+04   -.188E-01 0.000E+00 -.252E+01   -.307E-01 0.330E-12 -.469E-02
   0.268E-01 -.217E-11 0.258E+04   -.470E-02 0.710E-13 -.258E+04   0.307E-04 0.000E+00 -.236E+01   -.224E-01 0.154E-11 -.235E-01
   -.680E+01 0.188E-12 0.859E+03   0.684E+01 0.889E-14 -.859E+03   0.556E-01 0.000E+00 0.186E+00   -.436E-01 -.197E-12 0.302E-01
   0.620E-01 0.133E-11 0.852E+03   -.302E-01 -.159E-13 -.853E+03   0.260E-03 0.000E+00 0.836E-02   -.323E-01 0.631E-12 0.274E-01
   -.190E+03 0.590E-12 -.243E+04   0.188E+03 0.224E-13 0.243E+04   0.200E+01 0.000E+00 -.116E+00   -.467E-01 0.644E-12 0.217E-01
   0.190E+03 -.358E-11 -.243E+04   -.188E+03 -.365E-13 0.243E+04   -.200E+01 0.000E+00 -.117E+00   0.233E-01 0.949E-13 0.333E-01
[...]
   -.969E+01 0.529E-12 -.588E+02   0.851E+01 -.394E-13 0.563E+02   0.121E+01 0.000E+00 0.244E+01   -.326E-01 -.398E-12 0.317E-01
   0.357E-01 0.606E-12 -.701E+02   -.372E-02 -.143E-13 0.692E+02   -.118E-01 0.000E+00 0.968E+00   -.247E-01 0.848E-12 0.322E-01
   -.830E+02 0.466E+02 -.162E+04   0.833E+02 -.486E+02 0.162E+04   -.292E+00 0.197E+01 -.327E+01   -.317E-01 0.331E-03 0.122E-01
   0.830E+02 0.466E+02 -.162E+04   -.833E+02 -.486E+02 0.162E+04   0.289E+00 0.197E+01 -.327E+01   0.168E-01 0.138E-03 0.204E-01
   -.178E+02 0.309E+02 -.521E+03   0.183E+02 -.326E+02 0.522E+03   -.400E+00 0.169E+01 -.260E+00   -.369E-01 -.725E-02 0.268E-01
   0.179E+02 0.309E+02 -.521E+03   -.183E+02 -.326E+02 0.521E+03   0.395E+00 0.170E+01 -.237E+00   0.728E-02 -.281E-02 0.331E-01
   -.747E+02 -.271E-11 -.199E+04   0.744E+02 -.130E-13 0.202E+04   0.326E+00 0.000E+00 -.292E+02   -.355E-01 0.243E-12 -.121E-01
   -.313E+02 -.615E-13 -.963E+03   0.305E+02 -.102E-16 0.970E+03   0.819E+00 0.000E+00 -.725E+01   -.346E-01 0.230E-12 0.180E-01
   0.262E-01 -.352E-13 -.966E+03   -.214E-02 -.179E-13 0.962E+03   -.312E-02 0.000E+00 0.395E+01   -.201E-01 0.270E-12 0.225E-01
   -.830E+02 -.466E+02 -.162E+04   0.833E+02 0.486E+02 0.162E+04   -.292E+00 -.197E+01 -.327E+01   -.317E-01 -.331E-03 0.122E-01
   0.830E+02 -.466E+02 -.162E+04   -.833E+02 0.486E+02 0.162E+04   0.289E+00 -.197E+01 -.327E+01   0.168E-01 -.138E-03 0.204E-01
   -.178E+02 -.309E+02 -.521E+03   0.183E+02 0.326E+02 0.522E+03   -.400E+00 -.169E+01 -.260E+00   -.369E-01 0.725E-02 0.268E-01
   0.179E+02 -.309E+02 -.521E+03   -.183E+02 0.326E+02 0.521E+03   0.395E+00 -.170E+01 -.237E+00   0.728E-02 0.281E-02 0.331E-01
   -.757E+02 0.221E-11 -.203E+04   0.750E+02 0.157E-13 0.207E+04   0.733E+00 0.000E+00 -.316E+02   -.163E-01 -.389E-12 -.135E-01
   -.681E-01 0.532E-12 0.112E+03   0.497E-12 0.584E-13 0.682E-11   0.586E-01 -.155E-14 -.114E+03   0.140E-01 0.107E-11 0.140E+01

 POSITION                                       TOTAL-FORCE (eV/Angst)
      1.60107      3.23512      4.85268        -0.004623      0.000000     -0.298929
      4.80320      3.23512      4.85268         0.004423      0.000000     -0.298635
      1.60107      0.00000      1.61756        -0.013085      0.000000     -0.913479
      4.80320      0.00000      1.61756         0.013507      0.000000     -0.913767
      0.00000      3.23512      1.61756         0.010877      0.000000      1.572568
      3.20213      3.23512      1.61756         0.000100      0.000000      1.595726
      0.00000      0.00000      4.85268        -0.057282      0.000000     -0.169581
      3.20213      0.00000      4.85268         0.001909      0.000000     -0.112107
      1.60765      3.23512     11.32063        -0.018473      0.000000     -0.000156
      4.79697      3.23512     11.32049         0.009483      0.000000     -0.000154
      1.60246     -0.00000      8.09704        -0.013693      0.000000      0.012863
      4.80223     -0.00000      8.09709         0.020212      0.000000      0.014111
      0.00026      3.23512      8.08789        -0.035859      0.000000      0.009406
      3.20228      3.23512      8.08368         0.001994      0.000000     -0.016911
     -0.00467     -0.00000     11.45095        -0.013168      0.000000      0.027714
      3.20208     -0.00000     11.42327        -0.000843      0.000000     -0.008483
      0.00000      3.23512      3.61324         0.006187      0.000000     -0.094118
      3.20213      3.23512      3.61324         0.000593      0.000000     -0.149529
      0.00000      0.00000      0.37812         0.023396      0.000000      0.806584
      3.20213      0.00000      0.37812         0.000082      0.000000      0.798798
      1.60107      5.23080      4.85268        -0.039159     -0.026285     -0.041055
      4.80320      5.23080      4.85268         0.039584     -0.026657     -0.041200
      1.60107      1.99568      1.61756        -0.052000     -0.051184     -0.691539
      4.80320      1.99568      1.61756         0.052145     -0.051243     -0.691308
      0.00000      3.23512      6.09212         0.036088      0.000000      0.220591
      3.20213      3.23512      6.09212         0.001642      0.000000      0.154049
      0.00000      0.00000      2.85700         0.016311      0.000000      0.204645
      3.20213      0.00000      2.85700        -0.000314      0.000000      0.165922
      1.60107      1.23944      4.85268        -0.039159      0.026285     -0.041055
      4.80320      1.23944      4.85268         0.039584      0.026657     -0.041200
      1.60107      4.47456      1.61756        -0.052000      0.051184     -0.691539
      4.80320      4.47456      1.61756         0.052145      0.051243     -0.691308
      0.04393      3.23512     10.04659         0.004523      0.000000      0.011229
      3.20195      3.23512     10.05927         0.005790      0.000000      0.024033
      0.00056     -0.00000      6.85252         0.010381      0.000000      0.010982
      3.20243     -0.00000      6.85434        -0.000421      0.000000     -0.023760
      1.59931      5.23678     11.28641         0.008977     -0.003355      0.008272
      4.80479      5.23666     11.28585        -0.006979     -0.001535      0.006305
      1.60149      1.99048      8.07121         0.002430      0.005704      0.001182
      4.80328      1.99056      8.07104        -0.001638      0.004110      0.002025
      0.00976      3.23512     12.50087         0.014615      0.000000      0.003274
      3.20236      3.23512     12.48634         0.001013      0.000000      0.020639
     12.80399     -0.00000      9.35346         0.007562      0.000000      0.011829
      3.20237     -0.00000      9.33326        -0.000318      0.000000      0.006004
      1.59931      1.23346     11.28641         0.008977      0.003355      0.008272
      4.80479      1.23358     11.28585        -0.006979      0.001535      0.006305
      1.60149      4.47976      8.07121         0.002430     -0.005704      0.001182
      4.80328      4.47968      8.07104        -0.001638     -0.004110      0.002025
      3.20229     -0.00000     13.21900         0.001034      0.000000      0.008620
      0.01754     -0.00000     13.24940         0.003664      0.000000     -0.032164
      8.00533      3.23512      4.85268         0.051885      0.000000     -0.277796
     11.20747      3.23512      4.85268        -0.053299      0.000000     -0.277981
      8.00533      0.00000      1.61756         0.010900      0.000000     -0.933609
     11.20747      0.00000      1.61756        -0.011174      0.000000     -0.933271
      6.40427      3.23512      1.61756        -0.010976      0.000000      1.573669
      9.60640      3.23512      1.61756        -0.000257      0.000000      1.447163
      6.40427      0.00000      4.85268         0.058927      0.000000     -0.167819
      9.60640      0.00000      4.85268        -0.000220      0.000000     -0.181280
      7.97873      3.23512     11.33127         0.033381      0.000000      0.020663
     11.23397      3.23512     11.33070        -0.027806      0.000000      0.024539
[...]
      9.60667      3.23512     10.12370        -0.002290      0.000000      0.036376
      6.40413     -0.00000      6.85261        -0.007178      0.000000      0.012700
      9.60650     -0.00000      6.84735        -0.004576      0.000000      0.028004
      8.02776      5.22480     11.40270        -0.021914     -0.013030     -0.002442
     11.18490      5.22469     11.40229         0.014293     -0.011165     -0.002100
      7.99964      1.99437      8.10176        -0.002867     -0.004058      0.005246
     11.21365      1.99431      8.10115        -0.000541     -0.001381      0.006119
      6.39420      3.23512     12.50146        -0.012315      0.000000     -0.005033
      6.40965     -0.00000      9.35354        -0.008600      0.000000      0.011393
      9.60686     -0.00000      9.29775         0.000867      0.000000      0.018080
      8.02776      1.24544     11.40270        -0.021914      0.013030     -0.002442
     11.18490      1.24556     11.40229         0.014293      0.011165     -0.002100
      7.99964      4.47587      8.10176        -0.002867      0.004058      0.005246
     11.21365      4.47594      8.10115        -0.000541      0.001381      0.006119
      6.38579     -0.00000     13.24923         0.003969      0.000000     -0.017244
    total drift:                                0.004475      0.000000     -0.062309

  FREE ENERGIE OF THE ION-ELECTRON SYSTEM (eV)
  free  energy   TOTEN  =      -625.20923393 eV

  energy  without entropy=     -625.13515749  energy(sigma->0) =     -625.17219571

 d Force = 0.8615621E-05[ 0.721E-05, 0.100E-04]  d Energy =-0.5440613E-04 0.630E-04
 d Force =-0.3555124E+01[-0.356E+01,-0.356E+01]  d Ewald  =-0.3555124E+01-0.183E-08

 stress matrix after NEB project (eV)
    -18.84784      0.00000     -0.00170
      0.00000     -6.57074      0.00000
     -0.00170      0.00000     -3.62896
  FORCES: max atom, RMS     0.048697    0.015745
  FORCE total and by dimension    0.155872    0.045730
  Stress total and by dimension   20.287565   18.847844

 reached required accuracy - stopping structural energy minimisation