 vasp.5.4.4.18Apr17-6-g9f103f2a35 (build Feb 25 2019 10:51:38) complex

 executed on             LinuxIFC date 2023.04.12  10:37:30

 INCAR:
 POTCAR:    PAW_PBE Ir 06Sep2000
 POTCAR:    PAW_PBE O 08Apr2002
 POTCAR:    PAW_PBE Ir 06Sep2000
 POTCAR:    PAW_PBE O 08Apr2002

 POTCAR:    PAW_PBE Ir 06Sep2000
   VRHFIN =Ir: s1d8

   TITEL  = PAW_PBE Ir 06Sep2000
   POMASS =  192.220; ZVAL   =    9.000    mass and valenz
   ENMAX  =  210.864; ENMIN  =  158.148 eV

 POTCAR:    PAW_PBE O 08Apr2002
   VRHFIN =O: s2p4

   TITEL  = PAW_PBE O 08Apr2002
   POMASS =   16.000; ZVAL   =    6.000    mass and valenz
   ENMAX  =  400.000; ENMIN  =  300.000 eV

 POTCAR:    PAW_PBE Ir 06Sep2000
   VRHFIN =Ir: s1d8

   TITEL  = PAW_PBE Ir 06Sep2000
   POMASS =  192.220; ZVAL   =    9.000    mass and valenz
   ENMAX  =  210.864; ENMIN  =  158.148 eV

 POTCAR:    PAW_PBE O 08Apr2002
   VRHFIN =O: s2p4

   TITEL  = PAW_PBE O 08Apr2002
   POMASS =   16.000; ZVAL   =    6.000    mass and valenz
   ENMAX  =  400.000; ENMIN  =  300.000 eV

 Optimization of the real space projectors (new method)

 maximal supplied QI-value         = 14.36
 optimisation between [QCUT,QGAM] = [ 11.35, 22.84] = [ 36.05,146.02] Ry
 Optimized for a Real-space Cutoff    1.52 Angstroem

   l    n(q)    QCUT    max X(q) W(low)/X(q) W(high)/X(q)  e(spline)
   2      9    11.346   134.116    0.47E-03    0.13E-03    0.92E-06
   2      9    11.346   130.192    0.47E-03    0.13E-03    0.92E-06
   0     10    11.346    60.310    0.74E-04    0.13E-03    0.69E-06
   0     10    11.346    39.218    0.68E-04    0.12E-03    0.65E-06
   1     10    11.346    18.439    0.15E-03    0.34E-04    0.20E-06
   1     10    11.346    12.760    0.12E-03    0.31E-04    0.16E-06
 Optimization of the real space projectors (new method)

[...]

   l    n(q)    QCUT    max X(q) W(low)/X(q) W(high)/X(q)  e(spline)
   2      9    11.346   134.116    0.47E-03    0.13E-03    0.92E-06
   2      9    11.346   130.192    0.47E-03    0.13E-03    0.92E-06
   0     10    11.346    60.310    0.74E-04    0.13E-03    0.69E-06
   0     10    11.346    39.218    0.68E-04    0.12E-03    0.65E-06
   1     10    11.346    18.439    0.15E-03    0.34E-04    0.20E-06
   1     10    11.346    12.760    0.12E-03    0.31E-04    0.16E-06
 Optimization of the real space projectors (new method)

 maximal supplied QI-value         = 24.76
 optimisation between [QCUT,QGAM] = [ 11.39, 22.77] = [ 36.31,145.25] Ry
 Optimized for a Real-space Cutoff    1.00 Angstroem

   l    n(q)    QCUT    max X(q) W(low)/X(q) W(high)/X(q)  e(spline)
   0      7    11.387    20.381    0.39E-03    0.13E-02    0.15E-06
   0      7    11.387    15.268    0.42E-03    0.14E-02    0.17E-06
   1      6    11.387     5.964    0.41E-03    0.11E-02    0.17E-06
   1      6    11.387     5.382    0.39E-03    0.87E-03    0.15E-06

  PAW_PBE Ir 06Sep2000                  :
  PAW_PBE O 08Apr2002                   :
  PAW_PBE Ir 06Sep2000                  :
  PAW_PBE O 08Apr2002                   :

 POSCAR: Ir  O Ir  O
  positions in cartesian coordinates
 exchange correlation table for  LEXCH =        9
   RHO(1)=    0.500       N(1)  =     2000
   RHO(2)=  100.500       N(2)  =     4000

 VTST: version 3.2, (02/03/18)

 CHAIN: initializing optimizer

 OPT: Using VASP Dynamics algorithm
 CHAIN: Read ICHAIN            0

 POSCAR: Ir  O Ir  O
  positions in cartesian coordinates

 ion  position               nearest neighbor table
   1  0.125  0.500  0.188-  20 2.00  28 2.00  16 2.02  24 2.02  25 2.02  17 2.02   2 3.20  49 3.20

   2  0.375  0.500  0.188-  21 2.00  29 2.00  25 2.02  17 2.02  63 2.02  71 2.02   1 3.20  48 3.20

[...]

  63  0.500  0.500  0.140-  52 2.00  48 2.02   2 2.02
  64  0.750  0.500  0.140-  53 2.00  49 2.02  48 2.02
  65  0.500  0.000  0.015-   4 2.02  50 2.02
  66  0.750  0.000  0.015-  50 2.02  51 2.02
  67  0.625  0.808  0.188-  48 2.00  54 2.02  55 2.02
  68  0.875  0.808  0.188-  49 2.00   7 2.02  55 2.02
  69  0.625  0.308  0.062-  50 2.00  52 2.02  53 2.02
  70  0.875  0.308  0.062-  51 2.00   5 2.02  53 2.02
  71  0.500  0.500  0.235-   2 2.02  48 2.02  59 2.03
  72  0.750  0.500  0.235-  60 2.02  49 2.02  48 2.02
  73  0.500  0.000  0.110-  54 2.00  50 2.02   4 2.02
  74  0.750  0.000  0.110-  55 2.00  51 2.02  50 2.02
  75  0.625  0.192  0.188-  48 2.00  54 2.02  55 2.02
  76  0.875  0.192  0.188-  49 2.00   7 2.02  55 2.02
  77  0.625  0.692  0.062-  50 2.00  52 2.02  53 2.02
  78  0.875  0.692  0.062-  51 2.00   5 2.02  53 2.02
  79  0.515  0.500  0.387-  59 1.89  56 2.02
  80  0.733  0.500  0.386-  60 1.89  56 1.99
  81  0.501  0.000  0.265-  54 2.00  11 2.02  57 2.04
  82  0.750  0.000  0.265-  55 2.00  57 2.02  58 2.02
  83  0.625  0.813  0.441-  56 2.03  61 2.05  62 2.09
  84  0.875  0.817  0.439-  62 1.93  14 1.96
  85  0.625  0.308  0.309-  57 1.99  60 2.01  59 2.02
  86  0.875  0.309  0.314-  58 2.00  60 2.03  12 2.04
  87  0.520  0.500  0.486-  56 1.78
  88  0.733  0.500  0.486-  56 1.79
  89  0.500  0.000  0.360-  61 1.95  11 2.02  57 2.03
  90  0.749  0.000  0.362-  57 2.02  58 2.03  62 2.23
  91  0.625  0.187  0.441-  56 2.03  61 2.05  62 2.09
  92  0.875  0.183  0.439-  62 1.93  14 1.96
  93  0.625  0.692  0.309-  57 1.99  60 2.01  59 2.02
  94  0.875  0.691  0.314-  58 2.00  60 2.03  12 2.04
  95  0.751  0.000  0.516-  62 1.76

  LATTYP: Found a simple orthorhombic cell.
 ALAT       =     6.4702430000
 B/A-ratio  =     1.9796060210
 C/A-ratio  =     4.0000000000

  Lattice vectors:

 A1 = (   0.0000000000,  -6.4702430000,   0.0000000000)
 A2 = ( -12.8085320000,   0.0000000000,   0.0000000000)
 A3 = (   0.0000000000,   0.0000000000, -25.8809720000)

Analysis of symmetry for initial positions (statically):
 Subroutine PRICEL returns:
 Original cell was already a primitive cell.

 Routine SETGRP: Setting up the symmetry group for a
 simple orthorhombic supercell.

 Subroutine GETGRP returns: Found  2 space group operations
 (whereof  2 operations were pure point group operations)
 out of a pool of  8 trial point group operations.

The static configuration has the point symmetry C_1h.

Analysis of symmetry for dynamics (positions and initial velocities):
 Subroutine PRICEL returns:
 Original cell was already a primitive cell.

[...]

The dynamic configuration has the point symmetry C_1h.

Analysis of constrained symmetry for selective dynamics:
 Subroutine PRICEL returns:
 Original cell was already a primitive cell.

[...]

The constrained configuration has the point symmetry C_1h.

Analysis of structural, dynamic, and magnetic symmetry:
 Subroutine PRICEL returns:
 Original cell was already a primitive cell.

[...]

The magnetic configuration has the point symmetry C_1h.

 Subroutine INISYM returns: Found  2 space group operations
 (whereof  2 operations are pure point group operations),
 and found     1 'primitive' translations

 KPOINTS: Automatic mesh

Automatic generation of k-mesh.
Space group operators:
 irot       det(A)        alpha          n_x          n_y          n_z        tau_x        tau_y        tau_z
    1     1.000000     0.000001     1.000000     0.000000     0.000000     0.000000     0.000000     0.000000
    2    -1.000000   180.000000     0.000000     1.000000     0.000000     0.000000     0.000000     0.000000

 Subroutine IBZKPT returns following result:

 Found      4 irreducible k-points:

 Following reciprocal coordinates:
            Coordinates               Weight
  0.000000  0.000000  0.000000      1.000000
  0.333333  0.000000  0.000000      2.000000
  0.000000  0.333333  0.000000      2.000000
  0.333333  0.333333  0.000000      4.000000

 Following cartesian coordinates:
            Coordinates               Weight
  0.000000  0.000000  0.000000      1.000000
  0.026024  0.000000  0.000000      2.000000
  0.000000  0.051518  0.000000      2.000000
  0.026024  0.051518  0.000000      4.000000

 Subroutine IBZKPT_HF returns following result:

 Found      9 k-points in 1st BZ
 the following      9 k-points will be used (e.g. in the exchange kernel)
 Following reciprocal coordinates:   # in IRBZ
  0.000000  0.000000  0.000000    0.11111111   1 t-inv F
  0.333333  0.000000  0.000000    0.11111111   2 t-inv F
  0.000000  0.333333  0.000000    0.11111111   3 t-inv F
  0.333333  0.333333  0.000000    0.11111111   4 t-inv F
  0.000000 -0.333333  0.000000    0.11111111   3 t-inv F
  0.333333 -0.333333  0.000000    0.11111111   4 t-inv F
 -0.333333  0.000000  0.000000    0.11111111   2 t-inv T
 -0.333333 -0.333333  0.000000    0.11111111   4 t-inv T
 -0.333333  0.333333  0.000000    0.11111111   4 t-inv T

 SYSTEM =  unknown system
 POSCAR =  Ir  O Ir  O

 Startparameter for this run:
   NWRITE =      2    write-flag & timer
   PREC   = normal    normal or accurate (medium, high low for compatibility)
   ISTART =      0    job   : 0-new  1-cont  2-samecut
   ICHARG =      2    charge: 1-file 2-atom 10-const
   ISPIN  =      2    spin polarized calculation?
   LNONCOLLINEAR =      F non collinear calculations
   LSORBIT =      F    spin-orbit coupling
   INIWAV =      1    electr: 0-lowe 1-rand  2-diag
   LASPH  =      F    aspherical Exc in radial PAW
   METAGGA=      F    non-selfconsistent MetaGGA calc.

 Electronic Relaxation 1
   ENCUT  =  500.0 eV  36.75 Ry    6.06 a.u.  23.35 11.80 47.19*2*pi/ulx,y,z
   ENINI  =  500.0     initial cutoff
   ENAUG  =  605.4 eV  augmentation charge cutoff
   NELM   =     60;   NELMIN=  4; NELMDL= -5     # of ELM steps
   EDIFF  = 0.1E-05   stopping-criterion for ELM
   LREAL  =      T    real-space projection
   NLSPLINE    = F    spline interpolate recip. space projectors
   LCOMPAT=      F    compatible to vasp.4.4
   GGA_COMPAT  = T    GGA compatible to vasp.4.4-vasp.4.6
   LMAXPAW     = -100 max onsite density
   LMAXMIX     =    2 max onsite mixed and CHGCAR
   VOSKOWN=      0    Vosko Wilk Nusair interpolation
   ROPT   =   -0.00050  -0.00050  -0.00050  -0.00050
 Ionic relaxation
   EDIFFG = -.5E-01   stopping-criterion for IOM
   NSW    =   1177    number of steps for IOM
   NBLOCK =      1;   KBLOCK =   1177    inner block; outer block
   IBRION =      5    ionic relax: 0-MD 1-quasi-New 2-CG
   NFREE  =      2    steps in history (QN), initial steepest desc. (CG)
   ISIF   =      2    stress and relaxation
   IWAVPR =     11    prediction:  0-non 1-charg 2-wave 3-comb
   ISYM   =      2    0-nonsym 1-usesym 2-fastsym
   LCORR  =      T    Harris-Foulkes like correction to forces

   POTIM  = 0.5000    time-step for ionic-motion
   TEIN   =    0.0    initial temperature
   TEBEG  =    0.0;   TEEND  =   0.0 temperature during run
   SMASS  =  -3.00    Nose mass-parameter (am)
   estimated Nose-frequenzy (Omega)   =  0.10E-29 period in steps =****** mass=  -0.375E-26a.u.
   SCALEE = 1.0000    scale energy and forces
   NPACO  =    256;   APACO  = 16.0  distance and # of slots for P.C.
   PSTRESS=    0.0 pullay stress

  Mass of Ions in am
   POMASS = 192.22 16.00192.22 16.00
  Ionic Valenz
   ZVAL   =   9.00  6.00  9.00  6.00
  Atomic Wigner-Seitz radii
  virtual crystal weights
   VCA    =   1.00  1.00  1.00  1.00
   NELECT =     660.0000    total number of electrons
   NUPDOWN=      -1.0000    fix difference up-down

[...]
      6.40427      0.00000      4.85268         0.000648      0.000000     -0.184700
      9.60640      0.00000      4.85268         0.003031      0.000000     -0.226086
      8.01718      3.23512     11.43294         0.060436      0.000000      0.014179
      8.02836      0.00000      8.10128        -0.000543      0.000000      0.011287
     11.18178      0.00000      8.11382        -0.025777      0.000000     -0.001083
      6.42774      3.23512      8.12078         0.009653      0.000000     -0.037632
      9.58865      3.23512      8.11551         0.000660      0.000000     -0.014741
[...]
      6.41374      0.00000      6.84978        -0.019729      0.000000     -0.022678
      9.60921      0.00000      6.85139        -0.005576      0.000000      0.005034
      8.01162      5.26215     11.42155         0.018546      0.010749     -0.007654
     11.20637      5.28428     11.34998        -0.011845     -0.011844     -0.007852
      8.00939      1.99135      8.00568         0.010220      0.016718     -0.004975
     11.20326      1.99855      8.13604         0.001719     -0.004678      0.005753
      6.65624      3.23512     12.57973        -0.032332      0.000000      0.020722
      9.39167      3.23512     12.57623         0.008080      0.000000     -0.011743
      6.39911      0.00000      9.31752         0.060228      0.000000      0.061775
      9.59589      0.00000      9.37352         0.018388      0.000000      0.028366
      8.01162      1.20809     11.42155         0.018546     -0.010749     -0.007654
     11.20637      1.18596     11.34998        -0.011845      0.011844     -0.007852
      8.00939      4.47889      8.00568         0.010220     -0.016718     -0.004975
     11.20326      4.47169      8.13604         0.001719      0.004678      0.005753
      9.61308      0.00000     13.34423        -0.019611      0.000000      0.559016
    total drift:                                0.384512     -0.006056      0.002368

  FREE ENERGIE OF THE ION-ELECTRON SYSTEM (eV)
  free  energy   TOTEN  =      -598.83463056 eV

  energy  without entropy=     -598.77799777  energy(sigma->0) =     -598.80631416

 d Force =-0.6969851E-03[-0.168E-01, 0.154E-01]  d Energy =-0.8137514E-03 0.117E-03
 d Force =-0.5989147E+02[-0.601E+02,-0.597E+02]  d Ewald  =-0.5989068E+02-0.792E-03

 stress matrix after NEB project (eV)
    -20.42329      0.00000      0.29151
      0.00000     -2.04705      0.00000
      0.29151      0.00000     -4.99452
  FORCES: max atom, RMS     0.559360    0.057389
  FORCE total and by dimension    0.559360    0.559016
  Stress total and by dimension   21.128568   20.423292
 Finite differences progress:
  Degree of freedom:   3/  3
  Displacement:        2/  2
  Total:               6/  6

 SECOND DERIVATIVES (NOT SYMMETRIZED)
              95X         95Y         95Z
 95X    -1.912277    0.000000    3.148119
 95Y     0.002219   -2.221828   -0.009311
 95Z     1.963809    0.000000  -35.718895

 Eigenvectors and eigenvalues of the dynamical matrix

   1 f  =   23.420964 THz   147.158257 2PiTHz  781.239243 cm-1    96.861356 meV
             X         Y         Z           dx          dy          dz
      1.601066  3.235121  4.852682            0           0           0
      4.803199  3.235121  4.852682            0           0           0
      1.601066  0.000000  1.617561            0           0           0
      4.803199  0.000000  1.617561            0           0           0
      0.000000  3.235121  1.617561            0           0           0
      3.202133  3.235121  1.617561            0           0           0
      0.000000  0.000000  4.852682            0           0           0
      3.202133  0.000000  4.852682            0           0           0
      1.627689  3.235121 11.444592            0           0           0
      1.594113  0.000000  8.074549            0           0           0
      4.807474  0.000000  8.074885            0           0           0
      0.021061  3.235121  8.121186            0           0           0
      3.186452  3.235121  8.111748            0           0           0
     12.765789  0.000000 11.267198            0           0           0
      3.287346  0.000000 11.268101            0           0           0
      0.000000  3.235121  3.613243            0           0           0
      3.202133  3.235121  3.613243            0           0           0
      0.000000  0.000000  0.378121            0           0           0
      3.202133  0.000000  0.378121            0           0           0
      1.601066  5.230803  4.852682            0           0           0
      4.803199  5.230803  4.852682            0           0           0
      1.601066  1.995682  1.617561            0           0           0
      4.803199  1.995682  1.617561            0           0           0
      0.000000  3.235121  6.092122            0           0           0
      3.202133  3.235121  6.092122            0           0           0
      0.000000  0.000000  2.857000            0           0           0
      3.202133  0.000000  2.857000            0           0           0
      1.601066  1.239440  4.852682            0           0           0
      4.803199  1.239440  4.852682            0           0           0
      1.601066  4.474561  1.617561            0           0           0
      4.803199  4.474561  1.617561            0           0           0
      0.212922  3.235121  9.999335            0           0           0
      3.015630  3.235121  9.996464            0           0           0
     12.794019  0.000000  6.849885            0           0           0
      3.202748  0.000000  6.842586            0           0           0
      1.627143  5.271314 11.452055            0           0           0
      4.818734  5.300166 11.451134            0           0           0
      1.600592  1.995671  8.001826            0           0           0
      4.810597  2.000742  8.118460            0           0           0
      0.240898  3.235121 12.564340            0           0           0
      2.991279  3.235121 12.589306            0           0           0
     12.799550  0.000000  9.321223            0           0           0
      3.203249  0.000000  9.316658            0           0           0
      1.627143  1.198929 11.452055            0           0           0
      4.818734  1.170077 11.451134            0           0           0
      1.600592  4.474572  8.001826            0           0           0
      4.810597  4.469501  8.118460            0           0           0
      8.005332  3.235121  4.852682            0           0           0
     11.207465  3.235121  4.852682            0           0           0
      8.005332  0.000000  1.617561            0           0           0
     11.207465  0.000000  1.617561            0           0           0
      6.404266  3.235121  1.617561            0           0           0
      9.606399  3.235121  1.617561            0           0           0
      6.404266  0.000000  4.852682            0           0           0
      9.606399  0.000000  4.852682            0           0           0
      8.017178  3.235121 11.432939            0           0           0
      8.028359  0.000000  8.101281            0           0           0
     11.181780  0.000000  8.113815            0           0           0
      6.427737  3.235121  8.120782            0           0           0
      9.588648  3.235121  8.115514            0           0           0
[...]
      6.413742  0.000000  6.849780            0           0           0
      9.609207  0.000000  6.851389            0           0           0
      8.011615  5.262151 11.421553            0           0           0
     11.206370  5.284284 11.349977            0           0           0
      8.009393  1.991352  8.005682            0           0           0
     11.203256  1.998549  8.136044            0           0           0
      6.656244  3.235121 12.579726            0           0           0
      9.391666  3.235121 12.576234            0           0           0
      6.399112  0.000000  9.317519            0           0           0
      9.595887  0.000000  9.373515            0           0           0
      8.011615  1.208092 11.421553            0           0           0
     11.206370  1.185959 11.349977            0           0           0
      8.009393  4.478891  8.005682            0           0           0
     11.203256  4.471694  8.136044            0           0           0
      9.613079  0.000000 13.359227    -0.074967    0.000140    0.997186

[...]

   3 f  =    5.125905 THz    32.207011 2PiTHz  170.981782 cm-1    21.199047 meV
             X         Y         Z           dx          dy          dz
      1.601066  3.235121  4.852682            0           0           0
      4.803199  3.235121  4.852682            0           0           0
      1.601066  0.000000  1.617561            0           0           0
      4.803199  0.000000  1.617561            0           0           0
      0.000000  3.235121  1.617561            0           0           0
      3.202133  3.235121  1.617561            0           0           0
      0.000000  0.000000  4.852682            0           0           0
      3.202133  0.000000  4.852682            0           0           0
      1.627689  3.235121 11.444592            0           0           0
      1.594113  0.000000  8.074549            0           0           0
      4.807474  0.000000  8.074885            0           0           0
      0.021061  3.235121  8.121186            0           0           0
      3.186452  3.235121  8.111748            0           0           0
     12.765789  0.000000 11.267198            0           0           0
      3.287346  0.000000 11.268101            0           0           0
      0.000000  3.235121  3.613243            0           0           0
      3.202133  3.235121  3.613243            0           0           0
      0.000000  0.000000  0.378121            0           0           0
      3.202133  0.000000  0.378121            0           0           0
      1.601066  5.230803  4.852682            0           0           0
      4.803199  5.230803  4.852682            0           0           0
      1.601066  1.995682  1.617561            0           0           0
      4.803199  1.995682  1.617561            0           0           0
      0.000000  3.235121  6.092122            0           0           0
      3.202133  3.235121  6.092122            0           0           0
      0.000000  0.000000  2.857000            0           0           0
      3.202133  0.000000  2.857000            0           0           0
      1.601066  1.239440  4.852682            0           0           0
      4.803199  1.239440  4.852682            0           0           0
      1.601066  4.474561  1.617561            0           0           0
      4.803199  4.474561  1.617561            0           0           0
      0.212922  3.235121  9.999335            0           0           0
      3.015630  3.235121  9.996464            0           0           0
     12.794019  0.000000  6.849885            0           0           0
      3.202748  0.000000  6.842586            0           0           0
      1.627143  5.271314 11.452055            0           0           0
      4.818734  5.300166 11.451134            0           0           0
      1.600592  1.995671  8.001826            0           0           0
      4.810597  2.000742  8.118460            0           0           0
      0.240898  3.235121 12.564340            0           0           0
      2.991279  3.235121 12.589306            0           0           0
     12.799550  0.000000  9.321223            0           0           0
      3.203249  0.000000  9.316658            0           0           0
      1.627143  1.198929 11.452055            0           0           0
      4.818734  1.170077 11.451134            0           0           0
      1.600592  4.474572  8.001826            0           0           0
      4.810597  4.469501  8.118460            0           0           0
      8.005332  3.235121  4.852682            0           0           0
     11.207465  3.235121  4.852682            0           0           0
      8.005332  0.000000  1.617561            0           0           0
     11.207465  0.000000  1.617561            0           0           0
      6.404266  3.235121  1.617561            0           0           0
      9.606399  3.235121  1.617561            0           0           0
      6.404266  0.000000  4.852682            0           0           0
      9.606399  0.000000  4.852682            0           0           0
      8.017178  3.235121 11.432939            0           0           0
      8.028359  0.000000  8.101281            0           0           0
     11.181780  0.000000  8.113815            0           0           0
      6.427737  3.235121  8.120782            0           0           0
      9.588648  3.235121  8.115514            0           0           0
[...]
      6.413742  0.000000  6.849780            0           0           0
      9.609207  0.000000  6.851389            0           0           0
      8.011615  5.262151 11.421553            0           0           0
     11.206370  5.284284 11.349977            0           0           0
      8.009393  1.991352  8.005682            0           0           0
     11.203256  1.998549  8.136044            0           0           0
      6.656244  3.235121 12.579726            0           0           0
      9.391666  3.235121 12.576234            0           0           0
      6.399112  0.000000  9.317519            0           0           0
      9.595887  0.000000  9.373515            0           0           0
      8.011615  1.208092 11.421553            0           0           0
     11.206370  1.185959 11.349977            0           0           0
      8.009393  4.478891  8.005682            0           0           0
     11.203256  4.471694  8.136044            0           0           0
      9.613079  0.000000 13.359227    -0.997185   -0.001510   -0.074966

 Finite differences POTIM=  1.500000000000000E-002
  LATTYP: Found a simple orthorhombic cell.
 ALAT       =     6.4702430000
 B/A-ratio  =     1.9796060210
 C/A-ratio  =     4.0000000000

  Lattice vectors:

 A1 = (   0.0000000000,  -6.4702430000,   0.0000000000)
 A2 = ( -12.8085320000,   0.0000000000,   0.0000000000)
 A3 = (   0.0000000000,   0.0000000000, -25.8809720000)

Analysis of symmetry for initial positions (statically):
 Subroutine PRICEL returns:
 Original cell was already a primitive cell.

[...]

The static configuration has the point symmetry C_1h.

Analysis of symmetry for dynamics (positions and initial velocities):
 Subroutine PRICEL returns:
 Original cell was already a primitive cell.

[...]

The dynamic configuration has the point symmetry C_1h.

Analysis of constrained symmetry for selective dynamics:
 Subroutine PRICEL returns:
 Original cell was already a primitive cell.

[...]

The constrained configuration has the point symmetry C_1h.

Analysis of structural, dynamic, and magnetic symmetry:
 Subroutine PRICEL returns:
 Original cell was already a primitive cell.

 Routine SETGRP: Setting up the symmetry group for a
 simple orthorhombic supercell.

 Subroutine GETGRP returns: Found  2 space group operations
 (whereof  2 operations were pure point group operations)
 out of a pool of  8 trial point group operations.

The magnetic configuration has the point symmetry C_1h.

 Subroutine INISYM returns: Found  2 space group operations
 (whereof  2 operations are pure point group operations),
 and found     1 'primitive' translations

 KPOINTS: Automatic mesh

Automatic generation of k-mesh.
Space group operators:
 irot       det(A)        alpha          n_x          n_y          n_z        tau_x        tau_y        tau_z
    1     1.000000     0.000001     1.000000     0.000000     0.000000     0.000000     0.000000     0.000000
    2    -1.000000   180.000000     0.000000     1.000000     0.000000     0.000000     0.000000     0.000000

 Subroutine IBZKPT returns following result:

 Found      4 irreducible k-points:

 Following reciprocal coordinates:
            Coordinates               Weight
  0.000000  0.000000  0.000000      1.000000
  0.333333  0.000000  0.000000      2.000000
  0.000000  0.333333  0.000000      2.000000
  0.333333  0.333333  0.000000      4.000000

 Following cartesian coordinates:
            Coordinates               Weight
  0.000000  0.000000  0.000000      1.000000
  0.026024  0.000000  0.000000      2.000000
  0.000000  0.051518  0.000000      2.000000
  0.026024  0.051518  0.000000      4.000000