 vasp.5.4.4.18Apr17-6-g9f103f2a35 (build Feb 25 2019 10:51:38) complex

 executed on             LinuxIFC date 2022.09.20  17:26:17

 INCAR:
 POTCAR:    PAW_PBE Ir 06Sep2000
 POTCAR:    PAW_PBE O 08Apr2002
 POTCAR:    PAW_PBE Ir 06Sep2000
 POTCAR:    PAW_PBE O 08Apr2002
 POTCAR:    PAW_PBE Ir 06Sep2000
   VRHFIN =Ir: s1d8

   TITEL  = PAW_PBE Ir 06Sep2000
   POMASS =  192.220; ZVAL   =    9.000    mass and valenz
   ENMAX  =  210.864; ENMIN  =  158.148 eV

 POTCAR:    PAW_PBE O 08Apr2002
   VRHFIN =O: s2p4

   TITEL  = PAW_PBE O 08Apr2002
   POMASS =   16.000; ZVAL   =    6.000    mass and valenz
   ENMAX  =  400.000; ENMIN  =  300.000 eV

 POTCAR:    PAW_PBE Ir 06Sep2000
   VRHFIN =Ir: s1d8

   TITEL  = PAW_PBE Ir 06Sep2000
   POMASS =  192.220; ZVAL   =    9.000    mass and valenz
   ENMAX  =  210.864; ENMIN  =  158.148 eV

 POTCAR:    PAW_PBE O 08Apr2002
   VRHFIN =O: s2p4

   TITEL  = PAW_PBE O 08Apr2002
   POMASS =   16.000; ZVAL   =    6.000    mass and valenz
   ENMAX  =  400.000; ENMIN  =  300.000 eV

 Optimization of the real space projectors (new method)

 maximal supplied QI-value         = 14.36
 optimisation between [QCUT,QGAM] = [ 11.35, 22.84] = [ 36.05,146.02] Ry
 Optimized for a Real-space Cutoff    1.52 Angstroem

   l    n(q)    QCUT    max X(q) W(low)/X(q) W(high)/X(q)  e(spline)
   2      9    11.346   134.116    0.47E-03    0.13E-03    0.92E-06
   2      9    11.346   130.192    0.47E-03    0.13E-03    0.92E-06
   0     10    11.346    60.310    0.74E-04    0.13E-03    0.69E-06
   0     10    11.346    39.218    0.68E-04    0.12E-03    0.65E-06
   1     10    11.346    18.439    0.15E-03    0.34E-04    0.20E-06
   1     10    11.346    12.760    0.12E-03    0.31E-04    0.16E-06
 Optimization of the real space projectors (new method)

[...]

   l    n(q)    QCUT    max X(q) W(low)/X(q) W(high)/X(q)  e(spline)
   2      9    11.346   134.116    0.47E-03    0.13E-03    0.92E-06
   2      9    11.346   130.192    0.47E-03    0.13E-03    0.92E-06
   0     10    11.346    60.310    0.74E-04    0.13E-03    0.69E-06
   0     10    11.346    39.218    0.68E-04    0.12E-03    0.65E-06
   1     10    11.346    18.439    0.15E-03    0.34E-04    0.20E-06
   1     10    11.346    12.760    0.12E-03    0.31E-04    0.16E-06
 Optimization of the real space projectors (new method)

 maximal supplied QI-value         = 24.76
 optimisation between [QCUT,QGAM] = [ 11.39, 22.77] = [ 36.31,145.25] Ry
 Optimized for a Real-space Cutoff    1.00 Angstroem

   l    n(q)    QCUT    max X(q) W(low)/X(q) W(high)/X(q)  e(spline)
   0      7    11.387    20.381    0.39E-03    0.13E-02    0.15E-06
   0      7    11.387    15.268    0.42E-03    0.14E-02    0.17E-06
   1      6    11.387     5.964    0.41E-03    0.11E-02    0.17E-06
   1      6    11.387     5.382    0.39E-03    0.87E-03    0.15E-06

  PAW_PBE Ir 06Sep2000                  :
  PAW_PBE O 08Apr2002                   :
  PAW_PBE Ir 06Sep2000                  :
  PAW_PBE O 08Apr2002                   :

 POSCAR: Ir  O Ir  O
  positions in cartesian coordinates
 exchange correlation table for  LEXCH =        9
   RHO(1)=    0.500       N(1)  =     2000
   RHO(2)=  100.500       N(2)  =     4000

 VTST: version 3.2, (02/03/18)

 CHAIN: initializing optimizer

 OPT: Using VASP Conjugate-Gradient optimizer
 CHAIN: Read ICHAIN            0

 POSCAR: Ir  O Ir  O
  positions in cartesian coordinates

 ion  position               nearest neighbor table
   1  0.125  0.500  0.188-  21 2.00  29 2.00  17 2.02  25 2.02  26 2.02  18 2.02   2 3.20  50 3.20

   2  0.375  0.500  0.188-  22 2.00  30 2.00  26 2.02  18 2.02  65 2.02  73 2.02   1 3.20  49 3.20

[...]

  63  0.500  0.000  0.435-  91 1.96  46 2.02  85 2.02  38 2.02  93 2.02  64 3.20  16 3.20
  64  0.750  0.000  0.435-  92 1.96  86 2.02  85 2.02  93 2.02  94 2.02  63 3.20  15 3.20
  65  0.500  0.500  0.140-  53 2.00  49 2.02   2 2.02
  66  0.750  0.500  0.140-  54 2.00  50 2.02  49 2.02
  67  0.500  0.000  0.015-   4 2.02  51 2.02
  68  0.750  0.000  0.015-  51 2.02  52 2.02
  69  0.625  0.808  0.188-  49 2.00  55 2.02  56 2.02
  70  0.875  0.808  0.188-  50 2.00   7 2.02  56 2.02
  71  0.625  0.308  0.062-  51 2.00  53 2.02  54 2.02
  72  0.875  0.308  0.062-  52 2.00   5 2.02  54 2.02
  73  0.500  0.500  0.235-  61 2.01  49 2.02   2 2.02
  74  0.750  0.500  0.235-  62 2.01  50 2.02  49 2.02
  75  0.500  0.000  0.110-  55 2.00  51 2.02   4 2.02
  76  0.750  0.000  0.110-  56 2.00  52 2.02  51 2.02
  77  0.625  0.192  0.188-  49 2.00  55 2.02  56 2.02
  78  0.875  0.192  0.188-  50 2.00   7 2.02  56 2.02
  79  0.625  0.692  0.062-  51 2.00  53 2.02  54 2.02
  80  0.875  0.692  0.062-  52 2.00   5 2.02  54 2.02
  81  0.500  0.500  0.390-  61 1.99  57 2.04  10 2.04
  82  0.750  0.500  0.390-  62 1.99  58 2.04  57 2.04
  83  0.500  0.000  0.264-  55 1.97  12 2.03  59 2.03
  84  0.750  0.000  0.264-  56 1.97  59 2.03  60 2.03
  85  0.625  0.810  0.441-  57 2.01  63 2.02  64 2.02
  86  0.875  0.810  0.441-  58 2.01  15 2.02  64 2.02
  87  0.625  0.308  0.313-  59 2.00  61 2.02  62 2.02
  88  0.875  0.308  0.313-  60 2.00  13 2.02  62 2.02
  89  0.500  0.500  0.484-  10 1.99  57 1.99
  90  0.750  0.500  0.484-  57 1.99  58 1.99
  91  0.500  0.000  0.359-  63 1.96  59 2.02  12 2.02
  92  0.750  0.000  0.359-  64 1.96  60 2.02  59 2.02
  93  0.625  0.190  0.441-  57 2.01  63 2.02  64 2.02
  94  0.875  0.190  0.441-  58 2.01  15 2.02  64 2.02
  95  0.625  0.692  0.313-  59 2.00  61 2.02  62 2.02
  96  0.875  0.692  0.313-  60 2.00  13 2.02  62 2.02

  LATTYP: Found a simple orthorhombic cell.
 ALAT       =     6.4702430000
 B/A-ratio  =     1.9796060210
 C/A-ratio  =     4.0000000000

  Lattice vectors:

 A1 = (   0.0000000000,  -6.4702430000,   0.0000000000)
 A2 = ( -12.8085320000,   0.0000000000,   0.0000000000)
 A3 = (   0.0000000000,   0.0000000000, -25.8809720000)

Analysis of symmetry for initial positions (statically):
 Subroutine PRICEL returns:
 Original cell was already a primitive cell.

 Routine SETGRP: Setting up the symmetry group for a
 simple orthorhombic supercell.

 Subroutine GETGRP returns: Found  2 space group operations
 (whereof  2 operations were pure point group operations)
 out of a pool of  8 trial point group operations.

The static configuration has the point symmetry C_1h.

Analysis of symmetry for dynamics (positions and initial velocities):
 Subroutine PRICEL returns:
 Original cell was already a primitive cell.

[...]

The dynamic configuration has the point symmetry C_1h.

Analysis of constrained symmetry for selective dynamics:
 Subroutine PRICEL returns:
 Original cell was already a primitive cell.

[...]

The constrained configuration has the point symmetry C_1h.

Analysis of structural, dynamic, and magnetic symmetry:
 Subroutine PRICEL returns:
 Original cell was already a primitive cell.

 Routine SETGRP: Setting up the symmetry group for a
 simple orthorhombic supercell.

 Subroutine GETGRP returns: Found  2 space group operations
 (whereof  2 operations were pure point group operations)
 out of a pool of  8 trial point group operations.

The magnetic configuration has the point symmetry C_1h.

 Subroutine INISYM returns: Found  2 space group operations
 (whereof  2 operations are pure point group operations),
 and found     1 'primitive' translations

 KPOINTS: Automatic mesh

Automatic generation of k-mesh.
Space group operators:
 irot       det(A)        alpha          n_x          n_y          n_z        tau_x        tau_y        tau_z
    1     1.000000     0.000001     1.000000     0.000000     0.000000     0.000000     0.000000     0.000000
    2    -1.000000   180.000000     0.000000     1.000000     0.000000     0.000000     0.000000     0.000000

 Subroutine IBZKPT returns following result:

 Found      4 irreducible k-points:

 Following reciprocal coordinates:
            Coordinates               Weight
  0.000000  0.000000  0.000000      1.000000
  0.333333  0.000000  0.000000      2.000000
  0.000000  0.333333  0.000000      2.000000
  0.333333  0.333333  0.000000      4.000000

 Following cartesian coordinates:
            Coordinates               Weight
  0.000000  0.000000  0.000000      1.000000
  0.026024  0.000000  0.000000      2.000000
  0.000000  0.051518  0.000000      2.000000
  0.026024  0.051518  0.000000      4.000000

 SYSTEM =  unknown system
 POSCAR =  Ir  O Ir  O

 Startparameter for this run:
   NWRITE =      2    write-flag & timer
   PREC   = normal    normal or accurate (medium, high low for compatibility)
   ISTART =      0    job   : 0-new  1-cont  2-samecut
   ICHARG =      2    charge: 1-file 2-atom 10-const
   ISPIN  =      2    spin polarized calculation?
   LNONCOLLINEAR =      F non collinear calculations
   LSORBIT =      F    spin-orbit coupling
   INIWAV =      1    electr: 0-lowe 1-rand  2-diag
   LASPH  =      F    aspherical Exc in radial PAW
   METAGGA=      F    non-selfconsistent MetaGGA calc.

 Electronic Relaxation 1
   ENCUT  =  500.0 eV  36.75 Ry    6.06 a.u.  23.35 11.80 47.19*2*pi/ulx,y,z
   ENINI  =  500.0     initial cutoff
   ENAUG  =  605.4 eV  augmentation charge cutoff
   NELM   =     60;   NELMIN=  4; NELMDL= -5     # of ELM steps
   EDIFF  = 0.1E-04   stopping-criterion for ELM
   LREAL  =      T    real-space projection
   NLSPLINE    = F    spline interpolate recip. space projectors
   LCOMPAT=      F    compatible to vasp.4.4
   GGA_COMPAT  = T    GGA compatible to vasp.4.4-vasp.4.6
   LMAXPAW     = -100 max onsite density
   LMAXMIX     =    2 max onsite mixed and CHGCAR
   VOSKOWN=      0    Vosko Wilk Nusair interpolation
   ROPT   =   -0.00050  -0.00050  -0.00050  -0.00050
 Ionic relaxation
   EDIFFG = -.5E-01   stopping-criterion for IOM
   NSW    =    500    number of steps for IOM
   NBLOCK =      1;   KBLOCK =    500    inner block; outer block
   IBRION =      2    ionic relax: 0-MD 1-quasi-New 2-CG
   NFREE  =      1    steps in history (QN), initial steepest desc. (CG)
   ISIF   =      2    stress and relaxation
   IWAVPR =     11    prediction:  0-non 1-charg 2-wave 3-comb
   ISYM   =      2    0-nonsym 1-usesym 2-fastsym
   LCORR  =      T    Harris-Foulkes like correction to forces

   POTIM  = 0.5000    time-step for ionic-motion
   TEIN   =    0.0    initial temperature
   TEBEG  =    0.0;   TEEND  =   0.0 temperature during run
   SMASS  =  -3.00    Nose mass-parameter (am)
   estimated Nose-frequenzy (Omega)   =  0.10E-29 period in steps =****** mass=  -0.375E-26a.u.
   SCALEE = 1.0000    scale energy and forces
   NPACO  =    256;   APACO  = 16.0  distance and # of slots for P.C.
   PSTRESS=    0.0 pullay stress

  Mass of Ions in am
   POMASS = 192.22 16.00192.22 16.00
  Ionic Valenz
   ZVAL   =   9.00  6.00  9.00  6.00
  Atomic Wigner-Seitz radii
  virtual crystal weights
   VCA    =   1.00  1.00  1.00  1.00
   NELECT =     672.0000    total number of electrons
   NUPDOWN=      -1.0000    fix difference up-down

 DOS related values:
   EMIN   =  10.00;   EMAX   =-10.00  energy-range for DOS
   EFERMI =   0.00
   ISMEAR =     0;   SIGMA  =   0.05  broadening in eV -4-tet -1-fermi 0-gaus

 Electronic relaxation 2 (details)
   IALGO  =     68    algorithm
[...]
   -.974E-02 -.168E-11 0.257E+04   0.208E-02 0.743E-13 -.257E+04   -.251E-04 0.000E+00 -.260E+01   0.774E-02 0.934E-13 0.230E-01
   0.486E-01 0.742E-12 0.823E+03   -.103E-01 0.462E-13 -.823E+03   -.933E-03 0.000E+00 0.491E-01   -.390E-01 0.231E-12 0.114E+00
   -.217E-01 -.317E-12 0.823E+03   0.768E-02 -.155E-13 -.823E+03   0.123E-03 0.000E+00 0.476E-01   0.143E-01 -.183E-12 0.111E+00
   -.213E+00 0.475E-12 -.242E+04   0.250E+00 0.813E-13 0.242E+04   0.875E-03 0.000E+00 -.191E+01   -.228E-01 -.592E-13 0.923E-02
   0.179E+00 -.421E-12 -.242E+04   -.237E+00 0.727E-14 0.242E+04   0.233E-02 0.000E+00 -.191E+01   0.474E-01 -.170E-12 0.592E-02
   -.674E+00 0.434E-12 -.822E+03   0.690E+00 0.266E-13 0.821E+03   -.196E-01 0.000E+00 0.535E+00   -.196E-01 0.108E-12 0.113E+00
   0.652E+00 0.101E-11 -.822E+03   -.689E+00 0.230E-13 0.822E+03   0.171E-01 0.000E+00 0.536E+00   0.421E-01 0.398E-13 0.113E+00
   0.355E-01 0.176E-11 -.829E+03   0.926E-02 0.426E-13 0.829E+03   0.578E-03 0.000E+00 -.348E+00   -.450E-01 -.221E-12 0.950E-01
   -.241E-01 0.250E-12 -.829E+03   0.878E-02 0.142E-13 0.829E+03   -.705E-03 0.000E+00 -.337E+00   0.163E-01 -.101E-12 0.974E-01
   0.564E-01 -.238E-12 -.251E+04   -.243E-01 -.178E-13 0.251E+04   0.575E-03 0.000E+00 0.341E+01   -.337E-01 0.227E-12 -.317E-03
   -.172E+00 -.152E-12 -.251E+04   0.160E+00 0.293E-13 0.251E+04   0.375E-02 0.000E+00 0.338E+01   0.137E-01 0.163E-13 -.257E-02
   0.294E-01 0.246E-12 0.101E+04   -.634E-02 -.180E-13 -.101E+04   -.112E-03 0.000E+00 -.173E+01   -.235E-01 -.241E-12 0.736E-01
   -.113E-01 -.106E-12 0.101E+04   0.272E-02 -.400E-14 -.101E+04   0.101E-03 0.000E+00 -.173E+01   0.871E-02 0.170E-12 0.822E-01
   0.127E-01 0.395E-12 0.202E+04   -.148E-02 0.718E-14 -.205E+04   0.228E-03 0.000E+00 0.277E+02   -.114E-01 0.919E-13 -.279E-01
   -.453E-02 -.176E-12 0.202E+04   0.843E-03 0.927E-14 -.205E+04   -.545E-04 0.000E+00 0.277E+02   0.369E-02 -.453E-13 -.346E-01
   -.268E-01 0.353E+02 0.548E+03   0.405E-01 -.370E+02 -.548E+03   -.527E-01 0.170E+01 0.503E-01   -.142E-01 -.129E-01 0.762E-01
   -.194E-02 0.353E+02 0.548E+03   -.259E-01 -.370E+02 -.548E+03   0.522E-01 0.170E+01 0.499E-01   0.291E-01 -.130E-01 0.794E-01
   0.163E-01 -.367E+01 0.165E+04   0.103E-02 0.179E+01 -.165E+04   -.535E-01 0.182E+01 -.529E+00   -.178E-01 -.199E-03 0.141E-01
   -.261E-01 -.368E+01 0.165E+04   0.114E-02 0.179E+01 -.165E+04   0.533E-01 0.182E+01 -.529E+00   0.256E-01 0.151E-03 0.176E-01
   0.479E-01 0.220E-12 0.926E+02   -.181E-01 0.711E-14 -.896E+02   -.308E-03 0.000E+00 -.258E+01   -.300E-01 -.149E-12 0.853E-01
   -.673E-02 -.262E-13 0.923E+02   -.341E-02 -.138E-13 -.894E+02   -.134E-02 0.000E+00 -.256E+01   0.111E-01 0.792E-13 0.895E-01
   0.240E-01 0.127E-11 0.118E+04   -.460E-02 0.319E-13 -.118E+04   0.858E-03 0.000E+00 0.280E+00   -.198E-01 0.204E-12 0.510E-01
   -.939E-02 -.619E-12 0.118E+04   0.274E-02 0.139E-13 -.118E+04   -.259E-03 0.000E+00 0.288E+00   0.680E-02 -.132E-12 0.464E-01
   -.268E-01 -.353E+02 0.548E+03   0.405E-01 0.370E+02 -.548E+03   -.527E-01 -.170E+01 0.503E-01   -.142E-01 0.129E-01 0.762E-01
   -.194E-02 -.353E+02 0.548E+03   -.259E-01 0.370E+02 -.548E+03   0.522E-01 -.170E+01 0.499E-01   0.291E-01 0.130E-01 0.794E-01
   0.163E-01 0.367E+01 0.165E+04   0.103E-02 -.179E+01 -.165E+04   -.535E-01 -.182E+01 -.529E+00   -.178E-01 0.199E-03 0.141E-01
   -.261E-01 0.368E+01 0.165E+04   0.114E-02 -.179E+01 -.165E+04   0.533E-01 -.182E+01 -.529E+00   0.256E-01 -.151E-03 0.176E-01
   0.335E-01 -.553E-12 -.118E+04   -.244E-02 0.213E-13 0.118E+04   0.252E-02 0.000E+00 -.757E+00   -.346E-01 -.203E-12 0.684E-01
   -.585E-01 0.659E-12 -.118E+04   0.466E-01 -.377E-14 0.118E+04   -.136E-02 0.000E+00 -.779E+00   0.140E-01 -.115E-12 0.665E-01
   0.308E-01 -.220E-12 -.967E+02   0.134E-01 0.000E+00 0.947E+02   -.111E-01 0.000E+00 0.184E+01   -.320E-01 0.137E-12 0.108E+00
   -.168E-01 0.387E-12 -.970E+02   0.388E-02 0.193E-13 0.951E+02   0.549E-03 0.000E+00 0.181E+01   0.118E-01 -.264E-13 0.107E+00
   0.283E+00 -.462E+01 -.167E+04   -.311E+00 0.274E+01 0.168E+04   0.382E-01 0.189E+01 -.473E+01   -.682E-02 0.739E-02 0.119E-01
   -.268E+00 -.470E+01 -.167E+04   0.275E+00 0.284E+01 0.168E+04   -.422E-01 0.188E+01 -.472E+01   0.220E-01 0.167E-02 0.894E-02
   -.721E+00 0.320E+02 -.554E+03   0.799E+00 -.336E+02 0.554E+03   -.683E-01 0.160E+01 -.179E+00   -.476E-02 0.944E-02 0.746E-01
   0.668E+00 0.320E+02 -.553E+03   -.757E+00 -.336E+02 0.554E+03   0.643E-01 0.160E+01 -.165E+00   0.212E-01 0.740E-02 0.748E-01
   0.200E+00 0.229E-12 -.202E+04   -.202E+00 0.244E-14 0.205E+04   -.155E-01 0.000E+00 -.281E+02   -.235E-01 -.741E-13 -.103E-01
   -.255E-01 0.228E-12 -.202E+04   0.127E-01 0.163E-13 0.205E+04   0.119E-02 0.000E+00 -.281E+02   0.117E-01 0.518E-13 -.199E-01
   -.459E-01 0.211E-12 -.100E+04   0.910E-01 0.711E-14 0.100E+04   -.692E-02 0.000E+00 0.244E+01   -.338E-01 0.193E-12 0.890E-01
   -.878E-01 0.125E-11 -.100E+04   0.842E-01 -.304E-13 0.100E+04   -.568E-02 0.000E+00 0.246E+01   0.124E-01 0.110E-12 0.942E-01
   0.283E+00 0.462E+01 -.167E+04   -.311E+00 -.274E+01 0.168E+04   0.382E-01 -.189E+01 -.473E+01   -.682E-02 -.739E-02 0.119E-01
   -.268E+00 0.470E+01 -.167E+04   0.275E+00 -.284E+01 0.168E+04   -.422E-01 -.188E+01 -.472E+01   0.220E-01 -.167E-02 0.894E-02
   -.721E+00 -.320E+02 -.554E+03   0.799E+00 0.336E+02 0.554E+03   -.683E-01 -.160E+01 -.179E+00   -.476E-02 -.944E-02 0.746E-01
   0.668E+00 -.320E+02 -.553E+03   -.757E+00 0.336E+02 0.554E+03   0.643E-01 -.160E+01 -.165E+00   0.212E-01 -.740E-02 0.748E-01
   -.921E-01 0.812E-12 0.824E+03   0.765E-01 -.830E-13 -.824E+03   -.109E-01 0.000E+00 -.755E+00   0.158E-01 -.217E-12 0.134E+00
   0.125E+00 -.101E-12 0.824E+03   -.896E-01 -.107E-12 -.824E+03   0.110E-01 0.000E+00 -.755E+00   -.360E-01 -.621E-12 0.129E+00
   -.630E-02 0.130E-12 0.242E+04   0.380E-02 -.892E-13 -.243E+04   -.140E-01 0.000E+00 0.145E+01   0.440E-02 -.212E-12 0.350E-01
   0.205E-01 0.262E-12 0.242E+04   -.729E-02 -.579E-13 -.243E+04   0.140E-01 0.000E+00 0.145E+01   -.152E-01 0.283E-12 0.297E-01
   -.260E-01 -.203E-11 0.257E+04   0.410E-02 0.225E-14 -.257E+04   -.643E-04 0.000E+00 -.262E+01   0.221E-01 0.215E-12 0.369E-01
   0.990E-02 -.139E-11 0.257E+04   -.230E-02 0.707E-13 -.257E+04   -.124E-05 0.000E+00 -.260E+01   -.765E-02 -.128E-13 0.418E-01
   -.532E-01 0.158E-11 0.823E+03   0.145E-01 0.239E-13 -.823E+03   0.308E-03 0.000E+00 0.512E-01   0.391E-01 -.194E-12 0.122E+00
   0.243E-01 -.137E-11 0.823E+03   -.102E-01 -.142E-13 -.823E+03   -.267E-03 0.000E+00 0.495E-01   -.144E-01 0.572E-12 0.131E+00
   -.117E+00 -.131E-11 -.242E+04   0.110E+00 -.435E-13 0.242E+04   -.825E-02 0.000E+00 -.190E+01   0.184E-01 -.747E-13 -.360E-02
   0.157E+00 -.431E-11 -.242E+04   -.128E+00 0.657E-13 0.242E+04   0.615E-02 0.000E+00 -.190E+01   -.428E-01 -.561E-12 -.531E-03
   -.931E+00 0.454E-12 -.822E+03   0.909E+00 -.108E-12 0.821E+03   -.116E-01 0.000E+00 0.544E+00   0.176E-01 -.719E-13 0.107E+00
   0.111E+01 0.194E-12 -.822E+03   -.106E+01 0.000E+00 0.821E+03   0.334E-02 0.000E+00 0.546E+00   -.404E-01 0.435E-12 0.108E+00
[...]
   -.335E-01 -.246E-12 -.967E+02   -.399E-02 0.244E-13 0.948E+02   0.508E-02 0.000E+00 0.184E+01   0.326E-01 -.168E-12 0.108E+00
   0.426E-02 -.616E-13 -.971E+02   0.109E-01 -.178E-13 0.952E+02   -.136E-02 0.000E+00 0.181E+01   -.121E-01 0.329E-12 0.105E+00
   0.262E+00 -.460E+01 -.167E+04   -.301E+00 0.275E+01 0.168E+04   0.481E-01 0.188E+01 -.470E+01   0.952E-02 -.168E-01 0.976E-03
   -.296E+00 -.459E+01 -.167E+04   0.364E+00 0.273E+01 0.168E+04   -.578E-01 0.188E+01 -.470E+01   -.242E-01 -.106E-01 0.349E-02
   -.758E+00 0.320E+02 -.554E+03   0.809E+00 -.336E+02 0.554E+03   -.712E-01 0.161E+01 -.200E+00   0.241E-01 0.620E-02 0.753E-01
   0.806E+00 0.320E+02 -.554E+03   -.839E+00 -.336E+02 0.554E+03   0.710E-01 0.161E+01 -.200E+00   -.406E-01 0.783E-02 0.746E-01
   -.199E+00 -.143E-11 -.202E+04   0.203E+00 0.148E-13 0.205E+04   0.327E-02 0.000E+00 -.281E+02   0.236E-01 0.300E-13 -.237E-01
   0.250E-01 0.524E-11 -.202E+04   -.145E-01 0.111E-14 0.205E+04   0.112E-02 0.000E+00 -.281E+02   -.115E-01 -.279E-12 -.504E-01
   0.109E+00 0.179E-11 -.100E+04   -.155E+00 -.124E-13 0.100E+04   0.761E-02 0.000E+00 0.243E+01   0.337E-01 0.124E-13 0.857E-01
   -.622E-01 -.214E-11 -.100E+04   0.956E-01 0.107E-13 0.100E+04   -.122E-01 0.000E+00 0.251E+01   -.159E-01 0.303E-12 0.920E-01
   0.262E+00 0.460E+01 -.167E+04   -.301E+00 -.275E+01 0.168E+04   0.481E-01 -.188E+01 -.470E+01   0.952E-02 0.168E-01 0.976E-03
   -.296E+00 0.459E+01 -.167E+04   0.364E+00 -.273E+01 0.168E+04   -.578E-01 -.188E+01 -.470E+01   -.242E-01 0.106E-01 0.349E-02
   -.758E+00 -.320E+02 -.554E+03   0.809E+00 0.336E+02 0.554E+03   -.712E-01 -.161E+01 -.200E+00   0.241E-01 -.620E-02 0.753E-01
   0.806E+00 -.320E+02 -.554E+03   -.839E+00 0.336E+02 0.554E+03   0.710E-01 -.161E+01 -.200E+00   -.406E-01 -.783E-02 0.746E-01
   0.584E-01 -.361E-11 0.422E+02   -.168E-11 0.156E-12 0.523E-11   -.763E-01 0.222E-15 -.473E+02   -.382E-02 -.197E-13 0.526E+01

 POSITION                                       TOTAL-FORCE (eV/Angst)
      1.60107      3.23512      4.85268        -0.009811     -0.000000     -0.328299
      4.80320      3.23512      4.85268         0.010460     -0.000000     -0.327901
      1.60107      0.00000      1.61756        -0.012138     -0.000000     -0.937785
      4.80320      0.00000      1.61756         0.012541     -0.000000     -0.937815
      0.00000      3.23512      1.61756         0.000076     -0.000000      1.615609
      3.20213      3.23512      1.61756         0.000272     -0.000000      1.626435
      0.00000      0.00000      4.85268        -0.001388     -0.000000     -0.360426
      3.20213      0.00000      4.85268         0.000578     -0.000000     -0.362222
      1.60087      3.23512     11.36097         0.014792     -0.000000      0.024021
      4.80325      3.23512     11.36103        -0.007901     -0.000000      0.023859
      1.60100     -0.00000      8.07791        -0.023113     -0.000000      0.007285
      4.80319     -0.00000      8.07793         0.022256     -0.000000      0.008138
     -0.00000      3.23512      8.10302         0.000582     -0.000000      0.009784
      3.20209      3.23512      8.10202         0.000497     -0.000000      0.030723
      0.00016     -0.00000     11.26253        -0.000767     -0.000000      0.044677
      3.20211     -0.00000     11.26415         0.006029     -0.000000      0.013663
      0.00000      3.23512      3.61324        -0.000286     -0.000000     -0.166752
      3.20213      3.23512      3.61324         0.000432     -0.000000     -0.171327
      0.00000      0.00000      0.37812         0.000249     -0.000000      0.794693
      3.20213      0.00000      0.37812         0.000169     -0.000000      0.784997
      1.60107      5.23080      4.85268        -0.053001     -0.037618     -0.033333
      4.80320      5.23080      4.85268         0.053630     -0.037608     -0.033346
      1.60107      1.99568      1.61756        -0.053611     -0.070210     -0.684863
      4.80320      1.99568      1.61756         0.054069     -0.070197     -0.684790
      0.00000      3.23512      6.09212        -0.000249     -0.000000      0.431931
      3.20213      3.23512      6.09212        -0.000140     -0.000000      0.429593
      0.00000      0.00000      2.85700         0.000668     -0.000000      0.244343
      3.20213      0.00000      2.85700         0.000111     -0.000000      0.248577
      1.60107      1.23944      4.85268        -0.053001      0.037618     -0.033333
      4.80320      1.23944      4.85268         0.053630      0.037608     -0.033346
      1.60107      4.47456      1.61756        -0.053611      0.070210     -0.684863
      4.80320      4.47456      1.61756         0.054069      0.070197     -0.684790
      0.00004      3.23512     10.09749        -0.000829     -0.000000     -0.042587
      3.20202      3.23512     10.09547         0.000924     -0.000000      0.013356
     -0.00011     -0.00000      6.83700         0.001335     -0.000000      0.012901
      3.20216     -0.00000      6.83682        -0.000309     -0.000000      0.006957
      1.60223      5.24031     11.40412         0.003538      0.010879      0.013261
      4.80231      5.24014     11.40404        -0.012704      0.018728      0.016184
      1.59882      1.99506      8.09633         0.004548      0.003633      0.024324
      4.80536      1.99518      8.09604        -0.003081      0.001216      0.024603
      0.00070      3.23512     12.55103        -0.040784     -0.000000     -0.008673
      3.20205      3.23512     12.55091         0.000354     -0.000000      0.008844
     -0.00038     -0.00000      9.30611         0.004637     -0.000000     -0.024382
      3.20191     -0.00000      9.30693         0.003353     -0.000000      0.005749
      1.60223      1.22993     11.40412         0.003538     -0.010879      0.013261
      4.80231      1.23011     11.40404        -0.012704     -0.018728      0.016184
      1.59882      4.47518      8.09633         0.004548     -0.003633      0.024324
      4.80536      4.47506      8.09604        -0.003081     -0.001216      0.024603
      8.00533      3.23512      4.85268        -0.010405     -0.000000     -0.328162
     11.20747      3.23512      4.85268         0.010304     -0.000000     -0.328398
      8.00533      0.00000      1.61756        -0.011910     -0.000000     -0.938061
     11.20747      0.00000      1.61756         0.012304     -0.000000     -0.937984
      6.40427      3.23512      1.61756         0.000356     -0.000000      1.615797
      9.60640      3.23512      1.61756         0.000182     -0.000000      1.627106
      6.40427      0.00000      4.85268         0.000979     -0.000000     -0.356787
      9.60640      0.00000      4.85268        -0.000318     -0.000000     -0.359015
      8.00526      3.23512     11.36099         0.002867     -0.000000      0.031665
     11.20770      3.23512     11.36105        -0.007658     -0.000000      0.029567
      8.00533     -0.00000      8.07795        -0.015771     -0.000000      0.018033
     11.20759     -0.00000      8.07789         0.005166     -0.000000      0.019159
[...]
      9.60653      3.23512     10.09567         0.000135     -0.000000      0.012448
      6.40435     -0.00000      6.83725         0.000447     -0.000000      0.008246
      9.60637     -0.00000      6.83698         0.001880     -0.000000      0.005935
      8.00625      5.24017     11.40373         0.018995      0.009434      0.018830
     11.20645      5.24020     11.40376        -0.013409      0.010038      0.019149
      8.00318      1.99510      8.09662         0.003936      0.005537      0.016997
     11.20974      1.99509      8.09657        -0.002643      0.005360      0.016737
      6.40363      3.23512     12.55101         0.030295     -0.000000     -0.001076
      9.60645      3.23512     12.55116         0.000349     -0.000000      0.007032
      6.40464     -0.00000      9.30609        -0.004418     -0.000000     -0.020714
      9.60599     -0.00000      9.30853         0.005514     -0.000000     -0.048119
      8.00625      1.23007     11.40373         0.018995     -0.009434      0.018830
     11.20645      1.23005     11.40376        -0.013409     -0.010038      0.019149
      8.00318      4.47514      8.09662         0.003936     -0.005537      0.016997
     11.20974      4.47515      8.09657        -0.002643     -0.005360      0.016737
    total drift:                               -0.021714     -0.000000      0.178218

  FREE ENERGIE OF THE ION-ELECTRON SYSTEM (eV)
  free  energy   TOTEN  =      -615.15291049 eV

  energy  without entropy=     -615.08025400  energy(sigma->0) =     -615.11658224

 d Force = 0.1204233E-02[ 0.315E-03, 0.209E-02]  d Energy = 0.1324975E-02-0.121E-03
 d Force = 0.8705721E+02[ 0.870E+02, 0.871E+02]  d Ewald  = 0.8705721E+02-0.113E-05

 stress matrix after NEB project (eV)
    -17.95705      0.00000      0.01228
      0.00000    -10.37791      0.00000
      0.01228      0.00000     -3.53282
  FORCES: max atom, RMS     0.048434    0.018250
  FORCE total and by dimension    0.178810    0.048119
  Stress total and by dimension   21.038965   17.957055
 Conjugate gradient step on ions:
 trial-energy change:   -0.001325  1 .order   -0.001204   -0.002094   -0.000315
  (g-gl).g = 0.229E-02      g.g   = 0.232E-02  gl.gl    = 0.583E-02
 g(Force)  = 0.232E-02   g(Stress)= 0.000E+00 ortho     = 0.414E-04
 gamma     =   0.39266
 trial     =   0.89434
 opt step  =   1.00295  (harmonic =   1.05254) maximal distance =0.00331359
 next E    =  -615.152930   (d E  =  -0.00134)

 reached required accuracy - stopping structural energy minimisation