 vasp.5.4.4.18Apr17-6-g9f103f2a35 (build Feb 25 2019 10:51:38) complex

 executed on             LinuxIFC date 2023.03.14  11:42:55

 INCAR:
 POTCAR:    PAW_PBE Ir 06Sep2000
 POTCAR:    PAW_PBE O 08Apr2002
 POTCAR:    PAW_PBE Ir 06Sep2000
 POTCAR:    PAW_PBE O 08Apr2002

 POTCAR:    PAW_PBE Ir 06Sep2000
   VRHFIN =Ir: s1d8

   TITEL  = PAW_PBE Ir 06Sep2000
   POMASS =  192.220; ZVAL   =    9.000    mass and valenz
   ENMAX  =  210.864; ENMIN  =  158.148 eV

 POTCAR:    PAW_PBE O 08Apr2002
   VRHFIN =O: s2p4

   TITEL  = PAW_PBE O 08Apr2002
   POMASS =   16.000; ZVAL   =    6.000    mass and valenz
   ENMAX  =  400.000; ENMIN  =  300.000 eV

 POTCAR:    PAW_PBE Ir 06Sep2000
   VRHFIN =Ir: s1d8

   TITEL  = PAW_PBE Ir 06Sep2000
   POMASS =  192.220; ZVAL   =    9.000    mass and valenz
   ENMAX  =  210.864; ENMIN  =  158.148 eV

 POTCAR:    PAW_PBE O 08Apr2002
   VRHFIN =O: s2p4

   TITEL  = PAW_PBE O 08Apr2002
   POMASS =   16.000; ZVAL   =    6.000    mass and valenz
   ENMAX  =  400.000; ENMIN  =  300.000 eV

 Optimization of the real space projectors (new method)

 maximal supplied QI-value         = 14.36
 optimisation between [QCUT,QGAM] = [ 11.35, 22.84] = [ 36.05,146.02] Ry
 Optimized for a Real-space Cutoff    1.52 Angstroem

   l    n(q)    QCUT    max X(q) W(low)/X(q) W(high)/X(q)  e(spline)
   2      9    11.346   134.116    0.47E-03    0.13E-03    0.92E-06
   2      9    11.346   130.192    0.47E-03    0.13E-03    0.92E-06
   0     10    11.346    60.310    0.74E-04    0.13E-03    0.69E-06
   0     10    11.346    39.218    0.68E-04    0.12E-03    0.65E-06
   1     10    11.346    18.439    0.15E-03    0.34E-04    0.20E-06
   1     10    11.346    12.760    0.12E-03    0.31E-04    0.16E-06
 Optimization of the real space projectors (new method)

[...]

   l    n(q)    QCUT    max X(q) W(low)/X(q) W(high)/X(q)  e(spline)
   2      9    11.346   134.116    0.47E-03    0.13E-03    0.92E-06
   2      9    11.346   130.192    0.47E-03    0.13E-03    0.92E-06
   0     10    11.346    60.310    0.74E-04    0.13E-03    0.69E-06
   0     10    11.346    39.218    0.68E-04    0.12E-03    0.65E-06
   1     10    11.346    18.439    0.15E-03    0.34E-04    0.20E-06
   1     10    11.346    12.760    0.12E-03    0.31E-04    0.16E-06
 Optimization of the real space projectors (new method)

 maximal supplied QI-value         = 24.76
 optimisation between [QCUT,QGAM] = [ 11.39, 22.77] = [ 36.31,145.25] Ry
 Optimized for a Real-space Cutoff    1.00 Angstroem

   l    n(q)    QCUT    max X(q) W(low)/X(q) W(high)/X(q)  e(spline)
   0      7    11.387    20.381    0.39E-03    0.13E-02    0.15E-06
   0      7    11.387    15.268    0.42E-03    0.14E-02    0.17E-06
   1      6    11.387     5.964    0.41E-03    0.11E-02    0.17E-06
   1      6    11.387     5.382    0.39E-03    0.87E-03    0.15E-06

  PAW_PBE Ir 06Sep2000                  :
  PAW_PBE O 08Apr2002                   :
  PAW_PBE Ir 06Sep2000                  :
  PAW_PBE O 08Apr2002                   :

 POSCAR: Ir  O Ir  O
  positions in cartesian coordinates
 exchange correlation table for  LEXCH =        9
   RHO(1)=    0.500       N(1)  =     2000
   RHO(2)=  100.500       N(2)  =     4000

 VTST: version 3.2, (02/03/18)

 CHAIN: initializing optimizer

 OPT: Using VASP Dynamics algorithm
 CHAIN: Read ICHAIN            0

 POSCAR: Ir  O Ir  O
  positions in cartesian coordinates

 ion  position               nearest neighbor table
   1  0.125  0.500  0.188-  20 2.00  28 2.00  16 2.02  24 2.02  25 2.02  17 2.02   2 3.20  49 3.20

   2  0.375  0.500  0.188-  21 2.00  29 2.00  25 2.02  17 2.02  64 2.02  72 2.02   1 3.20  48 3.20

[...]

  63  0.756  0.000  0.442-  96 1.79  93 1.94  85 1.94  84 2.09  92 2.09  91 2.11  62 3.29
  64  0.500  0.500  0.140-  52 2.00  48 2.02   2 2.02
  65  0.750  0.500  0.140-  53 2.00  49 2.02  48 2.02
  66  0.500  0.000  0.015-   4 2.02  50 2.02
  67  0.750  0.000  0.015-  50 2.02  51 2.02
  68  0.625  0.808  0.188-  48 2.00  54 2.02  55 2.02
  69  0.875  0.808  0.188-  49 2.00   7 2.02  55 2.02
  70  0.625  0.308  0.062-  50 2.00  52 2.02  53 2.02
  71  0.875  0.308  0.062-  51 2.00   5 2.02  53 2.02
  72  0.500  0.500  0.235-  60 2.01  48 2.02   2 2.02
  73  0.750  0.500  0.235-  61 2.01  49 2.02  48 2.02
  74  0.500  0.000  0.110-  54 2.00  50 2.02   4 2.02
  75  0.750  0.000  0.110-  55 2.00  51 2.02  50 2.02
  76  0.625  0.192  0.188-  48 2.00  54 2.02  55 2.02
  77  0.875  0.192  0.188-  49 2.00   7 2.02  55 2.02
  78  0.625  0.692  0.062-  50 2.00  52 2.02  53 2.02
  79  0.875  0.692  0.062-  51 2.00   5 2.02  53 2.02
  80  0.500  0.500  0.390-  60 1.98  56 2.03  10 2.04
  81  0.748  0.500  0.390-  61 1.98  56 2.02  57 2.07
  82  0.501  0.000  0.265-  54 2.00  12 2.01  58 2.03
  83  0.750  0.000  0.265-  55 2.00  58 2.02  59 2.05
  84  0.626  0.809  0.436-  56 2.00  62 2.04  63 2.09
  85  0.866  0.796  0.437-  57 1.92  63 1.94
  86  0.625  0.307  0.313-  58 1.99  61 2.03  60 2.03
  87  0.875  0.308  0.313-  59 1.99  13 2.03  61 2.03
  88  0.501  0.500  0.484-  56 1.97  10 1.98
  89  0.747  0.500  0.485-  56 1.99  57 2.00
  90  0.500  0.000  0.361-  12 2.03  58 2.04  62 2.07
  91  0.751  0.000  0.361-  58 2.02  59 2.03  63 2.11
  92  0.626  0.191  0.436-  56 2.00  62 2.04  63 2.09
  93  0.866  0.204  0.437-  57 1.92  63 1.94
  94  0.625  0.693  0.313-  58 1.99  61 2.03  60 2.03
  95  0.875  0.692  0.313-  59 1.99  13 2.03  61 2.03
  96  0.745  0.000  0.511-  63 1.79
  97  0.501  0.000  0.511-  62 1.79

  LATTYP: Found a simple orthorhombic cell.
 ALAT       =     6.4702430000
 B/A-ratio  =     1.9796060210
 C/A-ratio  =     4.0000000000

  Lattice vectors:

 A1 = (   0.0000000000,  -6.4702430000,   0.0000000000)
 A2 = ( -12.8085320000,   0.0000000000,   0.0000000000)
 A3 = (   0.0000000000,   0.0000000000, -25.8809720000)

Analysis of symmetry for initial positions (statically):
 Subroutine PRICEL returns:
 Original cell was already a primitive cell.

 Routine SETGRP: Setting up the symmetry group for a
 simple orthorhombic supercell.

 Subroutine GETGRP returns: Found  2 space group operations
 (whereof  2 operations were pure point group operations)
 out of a pool of  8 trial point group operations.

The static configuration has the point symmetry C_1h.

Analysis of symmetry for dynamics (positions and initial velocities):
 Subroutine PRICEL returns:
 Original cell was already a primitive cell.

[...]

The dynamic configuration has the point symmetry C_1h.

Analysis of constrained symmetry for selective dynamics:
 Subroutine PRICEL returns:
 Original cell was already a primitive cell.

[...]

The constrained configuration has the point symmetry C_1h.

Analysis of structural, dynamic, and magnetic symmetry:
 Subroutine PRICEL returns:
 Original cell was already a primitive cell.

[...]

The magnetic configuration has the point symmetry C_1h.

 Subroutine INISYM returns: Found  2 space group operations
 (whereof  2 operations are pure point group operations),
 and found     1 'primitive' translations

 KPOINTS: Automatic mesh

Automatic generation of k-mesh.
Space group operators:
 irot       det(A)        alpha          n_x          n_y          n_z        tau_x        tau_y        tau_z
    1     1.000000     0.000001     1.000000     0.000000     0.000000     0.000000     0.000000     0.000000
    2    -1.000000   180.000000     0.000000     1.000000     0.000000     0.000000     0.000000     0.000000

 Subroutine IBZKPT returns following result:

 Found      4 irreducible k-points:

 Following reciprocal coordinates:
            Coordinates               Weight
  0.000000  0.000000  0.000000      1.000000
  0.333333  0.000000  0.000000      2.000000
  0.000000  0.333333  0.000000      2.000000
  0.333333  0.333333  0.000000      4.000000

 Following cartesian coordinates:
            Coordinates               Weight
  0.000000  0.000000  0.000000      1.000000
  0.026024  0.000000  0.000000      2.000000
  0.000000  0.051518  0.000000      2.000000
  0.026024  0.051518  0.000000      4.000000

 Subroutine IBZKPT_HF returns following result:

 Found      9 k-points in 1st BZ
 the following      9 k-points will be used (e.g. in the exchange kernel)
 Following reciprocal coordinates:   # in IRBZ
  0.000000  0.000000  0.000000    0.11111111   1 t-inv F
  0.333333  0.000000  0.000000    0.11111111   2 t-inv F
  0.000000  0.333333  0.000000    0.11111111   3 t-inv F
  0.333333  0.333333  0.000000    0.11111111   4 t-inv F
  0.000000 -0.333333  0.000000    0.11111111   3 t-inv F
  0.333333 -0.333333  0.000000    0.11111111   4 t-inv F
 -0.333333  0.000000  0.000000    0.11111111   2 t-inv T
 -0.333333 -0.333333  0.000000    0.11111111   4 t-inv T
 -0.333333  0.333333  0.000000    0.11111111   4 t-inv T

 SYSTEM =  unknown system
 POSCAR =  Ir  O Ir  O

 Startparameter for this run:
   NWRITE =      2    write-flag & timer
   PREC   = normal    normal or accurate (medium, high low for compatibility)
   ISTART =      0    job   : 0-new  1-cont  2-samecut
   ICHARG =      2    charge: 1-file 2-atom 10-const
   ISPIN  =      2    spin polarized calculation?
   LNONCOLLINEAR =      F non collinear calculations
   LSORBIT =      F    spin-orbit coupling
   INIWAV =      1    electr: 0-lowe 1-rand  2-diag
   LASPH  =      F    aspherical Exc in radial PAW
   METAGGA=      F    non-selfconsistent MetaGGA calc.

 Electronic Relaxation 1
   ENCUT  =  500.0 eV  36.75 Ry    6.06 a.u.  23.35 11.80 47.19*2*pi/ulx,y,z
   ENINI  =  500.0     initial cutoff
   ENAUG  =  605.4 eV  augmentation charge cutoff
   NELM   =     60;   NELMIN=  4; NELMDL= -5     # of ELM steps
   EDIFF  = 0.1E-05   stopping-criterion for ELM
   LREAL  =      T    real-space projection
   NLSPLINE    = F    spline interpolate recip. space projectors
   LCOMPAT=      F    compatible to vasp.4.4
   GGA_COMPAT  = T    GGA compatible to vasp.4.4-vasp.4.6
   LMAXPAW     = -100 max onsite density
   LMAXMIX     =    2 max onsite mixed and CHGCAR
   VOSKOWN=      0    Vosko Wilk Nusair interpolation
   ROPT   =   -0.00050  -0.00050  -0.00050  -0.00050
 Ionic relaxation
   EDIFFG = -.5E-01   stopping-criterion for IOM
   NSW    =   1201    number of steps for IOM
   NBLOCK =      1;   KBLOCK =   1201    inner block; outer block
   IBRION =      5    ionic relax: 0-MD 1-quasi-New 2-CG
   NFREE  =      2    steps in history (QN), initial steepest desc. (CG)
   ISIF   =      2    stress and relaxation
   IWAVPR =     11    prediction:  0-non 1-charg 2-wave 3-comb
   ISYM   =      2    0-nonsym 1-usesym 2-fastsym
   LCORR  =      T    Harris-Foulkes like correction to forces

   POTIM  = 0.5000    time-step for ionic-motion
   TEIN   =    0.0    initial temperature
   TEBEG  =    0.0;   TEEND  =   0.0 temperature during run
   SMASS  =  -3.00    Nose mass-parameter (am)
   estimated Nose-frequenzy (Omega)   =  0.10E-29 period in steps =****** mass=  -0.375E-26a.u.
   SCALEE = 1.0000    scale energy and forces
   NPACO  =    256;   APACO  = 16.0  distance and # of slots for P.C.
   PSTRESS=    0.0 pullay stress

  Mass of Ions in am
   POMASS = 192.22 16.00192.22 16.00
  Ionic Valenz
   ZVAL   =   9.00  6.00  9.00  6.00
  Atomic Wigner-Seitz radii
[...]
      8.01393      0.00000      8.10001        -0.009342     -0.000000     -0.001753
     11.23057      0.00000      8.08886        -0.004980     -0.000000     -0.018174
      6.40579      3.23512      8.10191        -0.001869     -0.000000      0.000333
[...]
      9.60104      0.00000      6.85316         0.017417     -0.000000      0.028924
      8.01522      5.23356     11.27332         0.025334      0.042121      0.027708
     11.09707      5.14917     11.29724         0.038349     -0.024657      0.000957
      8.00559      1.98948      8.08965         0.011176      0.003388     -0.003753
     11.21010      1.98977      8.08849         0.011955      0.009224      0.003556
      6.41637      3.23512     12.51791        -0.077345     -0.000000      0.034707
      9.57151      3.23512     12.54599         0.082840     -0.000000      0.013082
      6.40376      0.00000      9.35101        -0.003117     -0.000000     -0.006095
      9.62099      0.00000      9.33051         0.058054     -0.000000      0.008942
      8.01522      1.23669     11.27332         0.025334     -0.042121      0.027708
     11.09707      1.32108     11.29724         0.038349      0.024657      0.000957
      8.00559      4.48077      8.08965         0.011176     -0.003388     -0.003753
     11.21010      4.48047      8.08849         0.011955     -0.009224      0.003556
      9.53614      0.00000     13.22458         0.027186     -0.000000      0.094587
      6.41747      0.00000     13.20084         0.008807     -0.000000      0.641974
    total drift:                                0.170390     -0.058658      0.016848

  FREE ENERGIE OF THE ION-ELECTRON SYSTEM (eV)
  free  energy   TOTEN  =      -617.75277296 eV

  energy  without entropy=     -617.68287814  energy(sigma->0) =     -617.71782555

 d Force =-0.3785585E-02[-0.193E-01, 0.117E-01]  d Energy =-0.2752169E-02-0.103E-02
 d Force =-0.6170865E+02[-0.619E+02,-0.615E+02]  d Ewald  =-0.6170798E+02-0.675E-03

 stress matrix after NEB project (eV)
    -28.67416      0.00000     -0.73962
      0.00000    -12.65713      0.00000
     -0.73962      0.00000     -3.92270
  FORCES: max atom, RMS     0.642034    0.065950
  FORCE total and by dimension    0.649533    0.641974
  Stress total and by dimension   31.605255   28.674160
 Finite differences progress:
  Degree of freedom:   6/  6
  Displacement:        2/  2
  Total:              12/ 12

 SECOND DERIVATIVES (NOT SYMMETRIZED)
              96X         96Y         96Z         97X         97Y         97Z
 96X    -3.314608    0.000000    4.077518    0.051694    0.000000    0.046879
 96Y     0.009381   -1.509280    0.016990    0.003940   -0.041063    0.002403
 96Z     1.986241    0.000000  -33.722412    0.030653    0.000000   -0.043676
 97X     0.053539    0.000000   -0.025445   -2.987503    0.000000    0.260033
 97Y     0.001041   -0.052276    0.002971    0.001730   -0.455715   -0.000151
 97Z     0.061910    0.000000   -0.034311   -0.172546    0.000000  -34.385839

 Eigenvectors and eigenvalues of the dynamical matrix

   1 f  =   22.920006 THz   144.010648 2PiTHz  764.529099 cm-1    94.789561 meV
             X         Y         Z           dx          dy          dz
      1.601066  3.235121  4.852682            0           0           0
      4.803199  3.235121  4.852682            0           0           0
      1.601066  0.000000  1.617561            0           0           0
      4.803199  0.000000  1.617561            0           0           0
      0.000000  3.235121  1.617561            0           0           0
      3.202133  3.235121  1.617561            0           0           0
      0.000000  0.000000  4.852682            0           0           0
      3.202133  0.000000  4.852682            0           0           0
      1.621043  3.235121 11.393684            0           0           0
      4.807806  3.235121 11.358613            0           0           0
      1.561029  0.000000  8.075712            0           0           0
      4.822969  0.000000  8.084552            0           0           0
     12.807200  3.235121  8.113957            0           0           0
      3.201427  3.235121  8.106992            0           0           0
      3.108822  0.000000 11.245490            0           0           0
      0.000000  3.235121  3.613243            0           0           0
      3.202133  3.235121  3.613243            0           0           0
      0.000000  0.000000  0.378121            0           0           0
      3.202133  0.000000  0.378121            0           0           0
      1.601066  5.230803  4.852682            0           0           0
      4.803199  5.230803  4.852682            0           0           0
      1.601066  1.995682  1.617561            0           0           0
      4.803199  1.995682  1.617561            0           0           0
      0.000000  3.235121  6.092122            0           0           0
      3.202133  3.235121  6.092122            0           0           0
      0.000000  0.000000  2.857000            0           0           0
      3.202133  0.000000  2.857000            0           0           0
      1.601066  1.239440  4.852682            0           0           0
      4.803199  1.239440  4.852682            0           0           0
      1.601066  4.474561  1.617561            0           0           0
      4.803199  4.474561  1.617561            0           0           0
      0.004357  3.235121 10.110803            0           0           0
      3.215449  3.235121 10.101563            0           0           0
     12.805128  0.000000  6.828540            0           0           0
      3.211365  0.000000  6.847441            0           0           0
      1.755638  5.140297 11.454680            0           0           0
      4.765746  5.237618 11.329998            0           0           0
      1.593524  1.993806  8.093818            0           0           0
      4.808674  1.993085  8.094441            0           0           0
     12.792221  3.235121 12.553466            0           0           0
      3.264773  3.235121 12.589144            0           0           0
      0.006716  0.000000  9.262628            0           0           0
      3.195982  0.000000  9.290830            0           0           0
      1.755638  1.329946 11.454680            0           0           0
      4.765746  1.232625 11.329998            0           0           0
      1.593524  4.476437  8.093818            0           0           0
      4.808674  4.477158  8.094441            0           0           0
      8.005332  3.235121  4.852682            0           0           0
     11.207465  3.235121  4.852682            0           0           0
      8.005332  0.000000  1.617561            0           0           0
     11.207465  0.000000  1.617561            0           0           0
      6.404266  3.235121  1.617561            0           0           0
      9.606399  3.235121  1.617561            0           0           0
      6.404266  0.000000  4.852682            0           0           0
      9.606399  0.000000  4.852682            0           0           0
      7.996299  3.235121 11.337779            0           0           0
     11.193359  3.235121 11.373751            0           0           0
      8.013932  0.000000  8.100010            0           0           0
     11.230572  0.000000  8.088859            0           0           0
      6.405789  3.235121  8.101908            0           0           0
[...]
      9.601035  0.000000  6.853159            0           0           0
      8.015216  5.233556 11.273317            0           0           0
     11.097071  5.149167 11.297241            0           0           0
      8.005588  1.989477  8.089652            0           0           0
     11.210103  1.989772  8.088491            0           0           0
      6.416370  3.235121 12.517913            0           0           0
      9.571513  3.235121 12.545993            0           0           0
      6.403765  0.000000  9.351011            0           0           0
      9.620993  0.000000  9.330506            0           0           0
      8.015216  1.236687 11.273317            0           0           0
     11.097071  1.321076 11.297241            0           0           0
      8.005588  4.480766  8.089652            0           0           0
     11.210103  4.480471  8.088491            0           0           0
      9.536135  0.000000 13.224580    -0.013239   -0.000065    0.117905
      6.417469  0.000000 13.215844    -0.001371   -0.000003    0.992936

[...]

   6 f  =    2.632400 THz    16.539856 2PiTHz   87.807405 cm-1    10.886735 meV
             X         Y         Z           dx          dy          dz
      1.601066  3.235121  4.852682            0           0           0
      4.803199  3.235121  4.852682            0           0           0
      1.601066  0.000000  1.617561            0           0           0
      4.803199  0.000000  1.617561            0           0           0
      0.000000  3.235121  1.617561            0           0           0
      3.202133  3.235121  1.617561            0           0           0
      0.000000  0.000000  4.852682            0           0           0
      3.202133  0.000000  4.852682            0           0           0
      1.621043  3.235121 11.393684            0           0           0
      4.807806  3.235121 11.358613            0           0           0
      1.561029  0.000000  8.075712            0           0           0
      4.822969  0.000000  8.084552            0           0           0
     12.807200  3.235121  8.113957            0           0           0
      3.201427  3.235121  8.106992            0           0           0
      3.108822  0.000000 11.245490            0           0           0
      0.000000  3.235121  3.613243            0           0           0
      3.202133  3.235121  3.613243            0           0           0
      0.000000  0.000000  0.378121            0           0           0
      3.202133  0.000000  0.378121            0           0           0
      1.601066  5.230803  4.852682            0           0           0
      4.803199  5.230803  4.852682            0           0           0
      1.601066  1.995682  1.617561            0           0           0
      4.803199  1.995682  1.617561            0           0           0
      0.000000  3.235121  6.092122            0           0           0
      3.202133  3.235121  6.092122            0           0           0
      0.000000  0.000000  2.857000            0           0           0
      3.202133  0.000000  2.857000            0           0           0
      1.601066  1.239440  4.852682            0           0           0
      4.803199  1.239440  4.852682            0           0           0
      1.601066  4.474561  1.617561            0           0           0
      4.803199  4.474561  1.617561            0           0           0
      0.004357  3.235121 10.110803            0           0           0
      3.215449  3.235121 10.101563            0           0           0
     12.805128  0.000000  6.828540            0           0           0
      3.211365  0.000000  6.847441            0           0           0
      1.755638  5.140297 11.454680            0           0           0
      4.765746  5.237618 11.329998            0           0           0
      1.593524  1.993806  8.093818            0           0           0
      4.808674  1.993085  8.094441            0           0           0
     12.792221  3.235121 12.553466            0           0           0
      3.264773  3.235121 12.589144            0           0           0
      0.006716  0.000000  9.262628            0           0           0
      3.195982  0.000000  9.290830            0           0           0
      1.755638  1.329946 11.454680            0           0           0
      4.765746  1.232625 11.329998            0           0           0
      1.593524  4.476437  8.093818            0           0           0
      4.808674  4.477158  8.094441            0           0           0
      8.005332  3.235121  4.852682            0           0           0
     11.207465  3.235121  4.852682            0           0           0
      8.005332  0.000000  1.617561            0           0           0
     11.207465  0.000000  1.617561            0           0           0
      6.404266  3.235121  1.617561            0           0           0
      9.606399  3.235121  1.617561            0           0           0
      6.404266  0.000000  4.852682            0           0           0
      9.606399  0.000000  4.852682            0           0           0
      7.996299  3.235121 11.337779            0           0           0
     11.193359  3.235121 11.373751            0           0           0
      8.013932  0.000000  8.100010            0           0           0
     11.230572  0.000000  8.088859            0           0           0
      6.405789  3.235121  8.101908            0           0           0
[...]
      9.601035  0.000000  6.853159            0           0           0
      8.015216  5.233556 11.273317            0           0           0
     11.097071  5.149167 11.297241            0           0           0
      8.005588  1.989477  8.089652            0           0           0
     11.210103  1.989772  8.088491            0           0           0
      6.416370  3.235121 12.517913            0           0           0
      9.571513  3.235121 12.545993            0           0           0
      6.403765  0.000000  9.351011            0           0           0
      9.620993  0.000000  9.330506            0           0           0
      8.015216  1.236687 11.273317            0           0           0
     11.097071  1.321076 11.297241            0           0           0
      8.005588  4.480766  8.089652            0           0           0
     11.210103  4.480471  8.088491            0           0           0
      9.536135  0.000000 13.224580     0.000166   -0.044165    0.000049
      6.417469  0.000000 13.215844     0.000310    0.999024   -0.000003

 Finite differences POTIM=  1.500000000000000E-002
  LATTYP: Found a simple orthorhombic cell.
 ALAT       =     6.4702430000
 B/A-ratio  =     1.9796060210
 C/A-ratio  =     4.0000000000

  Lattice vectors:

 A1 = (   0.0000000000,  -6.4702430000,   0.0000000000)
 A2 = ( -12.8085320000,   0.0000000000,   0.0000000000)
 A3 = (   0.0000000000,   0.0000000000, -25.8809720000)

Analysis of symmetry for initial positions (statically):
 Subroutine PRICEL returns:
 Original cell was already a primitive cell.

[...]

The static configuration has the point symmetry C_1h.

Analysis of symmetry for dynamics (positions and initial velocities):
 Subroutine PRICEL returns:
 Original cell was already a primitive cell.

[...]

The dynamic configuration has the point symmetry C_1h.

Analysis of constrained symmetry for selective dynamics:
 Subroutine PRICEL returns:
 Original cell was already a primitive cell.

[...]

The constrained configuration has the point symmetry C_1h.

Analysis of structural, dynamic, and magnetic symmetry:
 Subroutine PRICEL returns:
 Original cell was already a primitive cell.

 Routine SETGRP: Setting up the symmetry group for a
 simple orthorhombic supercell.

 Subroutine GETGRP returns: Found  2 space group operations
 (whereof  2 operations were pure point group operations)
 out of a pool of  8 trial point group operations.

The magnetic configuration has the point symmetry C_1h.

 Subroutine INISYM returns: Found  2 space group operations
 (whereof  2 operations are pure point group operations),
 and found     1 'primitive' translations

 KPOINTS: Automatic mesh

Automatic generation of k-mesh.
Space group operators:
 irot       det(A)        alpha          n_x          n_y          n_z        tau_x        tau_y        tau_z
    1     1.000000     0.000001     1.000000     0.000000     0.000000     0.000000     0.000000     0.000000
    2    -1.000000   180.000000     0.000000     1.000000     0.000000     0.000000     0.000000     0.000000

 Subroutine IBZKPT returns following result:

 Found      4 irreducible k-points:

 Following reciprocal coordinates:
            Coordinates               Weight
  0.000000  0.000000  0.000000      1.000000
  0.333333  0.000000  0.000000      2.000000
  0.000000  0.333333  0.000000      2.000000
  0.333333  0.333333  0.000000      4.000000

 Following cartesian coordinates:
            Coordinates               Weight
  0.000000  0.000000  0.000000      1.000000
  0.026024  0.000000  0.000000      2.000000
  0.000000  0.051518  0.000000      2.000000
  0.026024  0.051518  0.000000      4.000000