 vasp.5.4.4.18Apr17-6-g9f103f2a35 (build Feb 25 2019 10:51:38) complex

 executed on             LinuxIFC date 2023.03.15  11:26:31

 INCAR:
 POTCAR:    PAW_PBE Ir 06Sep2000
 POTCAR:    PAW_PBE O 08Apr2002
 POTCAR:    PAW_PBE Ir 06Sep2000
 POTCAR:    PAW_PBE O 08Apr2002

 POTCAR:    PAW_PBE Ir 06Sep2000
   VRHFIN =Ir: s1d8

   TITEL  = PAW_PBE Ir 06Sep2000
   POMASS =  192.220; ZVAL   =    9.000    mass and valenz
   ENMAX  =  210.864; ENMIN  =  158.148 eV

 POTCAR:    PAW_PBE O 08Apr2002
   VRHFIN =O: s2p4

   TITEL  = PAW_PBE O 08Apr2002
   POMASS =   16.000; ZVAL   =    6.000    mass and valenz
   ENMAX  =  400.000; ENMIN  =  300.000 eV

 POTCAR:    PAW_PBE Ir 06Sep2000
   VRHFIN =Ir: s1d8

   TITEL  = PAW_PBE Ir 06Sep2000
   POMASS =  192.220; ZVAL   =    9.000    mass and valenz
   ENMAX  =  210.864; ENMIN  =  158.148 eV

 POTCAR:    PAW_PBE O 08Apr2002
   VRHFIN =O: s2p4

   TITEL  = PAW_PBE O 08Apr2002
   POMASS =   16.000; ZVAL   =    6.000    mass and valenz
   ENMAX  =  400.000; ENMIN  =  300.000 eV

 Optimization of the real space projectors (new method)

 maximal supplied QI-value         = 14.36
 optimisation between [QCUT,QGAM] = [ 11.35, 22.84] = [ 36.05,146.02] Ry
 Optimized for a Real-space Cutoff    1.52 Angstroem

   l    n(q)    QCUT    max X(q) W(low)/X(q) W(high)/X(q)  e(spline)
   2      9    11.346   134.116    0.47E-03    0.13E-03    0.92E-06
   2      9    11.346   130.192    0.47E-03    0.13E-03    0.92E-06
   0     10    11.346    60.310    0.74E-04    0.13E-03    0.69E-06
   0     10    11.346    39.218    0.68E-04    0.12E-03    0.65E-06
   1     10    11.346    18.439    0.15E-03    0.34E-04    0.20E-06
   1     10    11.346    12.760    0.12E-03    0.31E-04    0.16E-06
 Optimization of the real space projectors (new method)

[...]

   l    n(q)    QCUT    max X(q) W(low)/X(q) W(high)/X(q)  e(spline)
   2      9    11.346   134.116    0.47E-03    0.13E-03    0.92E-06
   2      9    11.346   130.192    0.47E-03    0.13E-03    0.92E-06
   0     10    11.346    60.310    0.74E-04    0.13E-03    0.69E-06
   0     10    11.346    39.218    0.68E-04    0.12E-03    0.65E-06
   1     10    11.346    18.439    0.15E-03    0.34E-04    0.20E-06
   1     10    11.346    12.760    0.12E-03    0.31E-04    0.16E-06
 Optimization of the real space projectors (new method)

 maximal supplied QI-value         = 24.76
 optimisation between [QCUT,QGAM] = [ 11.39, 22.77] = [ 36.31,145.25] Ry
 Optimized for a Real-space Cutoff    1.00 Angstroem

   l    n(q)    QCUT    max X(q) W(low)/X(q) W(high)/X(q)  e(spline)
   0      7    11.387    20.381    0.39E-03    0.13E-02    0.15E-06
   0      7    11.387    15.268    0.42E-03    0.14E-02    0.17E-06
   1      6    11.387     5.964    0.41E-03    0.11E-02    0.17E-06
   1      6    11.387     5.382    0.39E-03    0.87E-03    0.15E-06

  PAW_PBE Ir 06Sep2000                  :
  PAW_PBE O 08Apr2002                   :
  PAW_PBE Ir 06Sep2000                  :
  PAW_PBE O 08Apr2002                   :

 POSCAR: Ir  O Ir  O
  positions in cartesian coordinates
 exchange correlation table for  LEXCH =        9
   RHO(1)=    0.500       N(1)  =     2000
   RHO(2)=  100.500       N(2)  =     4000

 VTST: version 3.2, (02/03/18)

 CHAIN: initializing optimizer

 OPT: Using VASP Dynamics algorithm
 CHAIN: Read ICHAIN            0

 POSCAR: Ir  O Ir  O
  positions in cartesian coordinates

 ion  position               nearest neighbor table
   1  0.125  0.500  0.188-  21 2.00  29 2.00  17 2.02  25 2.02  26 2.02  18 2.02   2 3.20  50 3.20

   2  0.375  0.500  0.188-  22 2.00  30 2.00  26 2.02  18 2.02  65 2.02  73 2.02   1 3.20  49 3.20

[...]

  65  0.500  0.500  0.140-  53 2.00  49 2.02   2 2.02
  66  0.750  0.500  0.140-  54 2.00  50 2.02  49 2.02
  67  0.500  0.000  0.015-   4 2.02  51 2.02
  68  0.750  0.000  0.015-  51 2.02  52 2.02
  69  0.625  0.808  0.188-  49 2.00  55 2.02  56 2.02
  70  0.875  0.808  0.188-  50 2.00   7 2.02  56 2.02
  71  0.625  0.308  0.062-  51 2.00  53 2.02  54 2.02
  72  0.875  0.308  0.062-  52 2.00   5 2.02  54 2.02
  73  0.500  0.500  0.235-  61 2.00  49 2.02   2 2.02
  74  0.750  0.500  0.235-  62 2.02  50 2.02  49 2.02
  75  0.500  0.000  0.110-  55 2.00  51 2.02   4 2.02
  76  0.750  0.000  0.110-  56 2.00  52 2.02  51 2.02
  77  0.625  0.192  0.188-  49 2.00  55 2.02  56 2.02
  78  0.875  0.192  0.188-  50 2.00   7 2.02  56 2.02
  79  0.625  0.692  0.062-  51 2.00  53 2.02  54 2.02
  80  0.875  0.692  0.062-  52 2.00   5 2.02  54 2.02
  81  0.496  0.500  0.388-  61 1.96  10 2.02  57 2.07
  82  0.750  0.500  0.391-  57 2.01  62 2.01  58 2.02
  83  0.501  0.000  0.265-  55 2.00  12 2.01  59 2.03
  84  0.750  0.000  0.265-  56 2.00  60 2.02  59 2.03
  85  0.625  0.808  0.438-  57 1.99  64 2.03  63 2.03
  86  0.876  0.808  0.441-  58 1.99  15 2.02  64 2.04
  87  0.625  0.308  0.313-  59 1.99  61 2.02  62 2.03
  88  0.875  0.308  0.313-  60 1.99  62 2.02  13 2.02
  89  0.501  0.500  0.483-  57 1.97  10 1.99
  90  0.500  0.000  0.362-  12 2.02  59 2.03  63 2.10
  91  0.750  0.000  0.362-  60 2.02  59 2.04  64 2.10
  92  0.625  0.192  0.438-  57 1.99  64 2.03  63 2.03
  93  0.876  0.192  0.441-  58 1.99  15 2.02  64 2.04
  94  0.625  0.692  0.313-  59 1.99  61 2.02  62 2.03
  95  0.875  0.692  0.313-  60 1.99  62 2.02  13 2.02
  96  0.748  0.000  0.513-  64 1.80
  97  0.502  0.000  0.512-  63 1.80

  LATTYP: Found a simple orthorhombic cell.
 ALAT       =     6.4702430000
 B/A-ratio  =     1.9796060210
 C/A-ratio  =     4.0000000000

  Lattice vectors:

 A1 = (   0.0000000000,  -6.4702430000,   0.0000000000)
 A2 = ( -12.8085320000,   0.0000000000,   0.0000000000)
 A3 = (   0.0000000000,   0.0000000000, -25.8809720000)

Analysis of symmetry for initial positions (statically):
 Subroutine PRICEL returns:
 Original cell was already a primitive cell.

 Routine SETGRP: Setting up the symmetry group for a
 simple orthorhombic supercell.

 Subroutine GETGRP returns: Found  2 space group operations
 (whereof  2 operations were pure point group operations)
 out of a pool of  8 trial point group operations.

The static configuration has the point symmetry C_1h.

Analysis of symmetry for dynamics (positions and initial velocities):
 Subroutine PRICEL returns:
 Original cell was already a primitive cell.

[...]

The dynamic configuration has the point symmetry C_1h.

Analysis of constrained symmetry for selective dynamics:
 Subroutine PRICEL returns:
 Original cell was already a primitive cell.

[...]

The constrained configuration has the point symmetry C_1h.

Analysis of structural, dynamic, and magnetic symmetry:
 Subroutine PRICEL returns:
 Original cell was already a primitive cell.

[...]

The magnetic configuration has the point symmetry C_1h.

 Subroutine INISYM returns: Found  2 space group operations
 (whereof  2 operations are pure point group operations),
 and found     1 'primitive' translations

 KPOINTS: Automatic mesh

Automatic generation of k-mesh.
Space group operators:
 irot       det(A)        alpha          n_x          n_y          n_z        tau_x        tau_y        tau_z
    1     1.000000     0.000001     1.000000     0.000000     0.000000     0.000000     0.000000     0.000000
    2    -1.000000   180.000000     0.000000     1.000000     0.000000     0.000000     0.000000     0.000000

 Subroutine IBZKPT returns following result:

 Found      4 irreducible k-points:

 Following reciprocal coordinates:
            Coordinates               Weight
  0.000000  0.000000  0.000000      1.000000
  0.333333  0.000000  0.000000      2.000000
  0.000000  0.333333  0.000000      2.000000
  0.333333  0.333333  0.000000      4.000000

 Following cartesian coordinates:
            Coordinates               Weight
  0.000000  0.000000  0.000000      1.000000
  0.026024  0.000000  0.000000      2.000000
  0.000000  0.051518  0.000000      2.000000
  0.026024  0.051518  0.000000      4.000000

 Subroutine IBZKPT_HF returns following result:

 Found      9 k-points in 1st BZ
 the following      9 k-points will be used (e.g. in the exchange kernel)
 Following reciprocal coordinates:   # in IRBZ
  0.000000  0.000000  0.000000    0.11111111   1 t-inv F
  0.333333  0.000000  0.000000    0.11111111   2 t-inv F
  0.000000  0.333333  0.000000    0.11111111   3 t-inv F
  0.333333  0.333333  0.000000    0.11111111   4 t-inv F
  0.000000 -0.333333  0.000000    0.11111111   3 t-inv F
  0.333333 -0.333333  0.000000    0.11111111   4 t-inv F
 -0.333333  0.000000  0.000000    0.11111111   2 t-inv T
 -0.333333 -0.333333  0.000000    0.11111111   4 t-inv T
 -0.333333  0.333333  0.000000    0.11111111   4 t-inv T

 SYSTEM =  unknown system
 POSCAR =  Ir  O Ir  O

 Startparameter for this run:
   NWRITE =      2    write-flag & timer
   PREC   = normal    normal or accurate (medium, high low for compatibility)
   ISTART =      0    job   : 0-new  1-cont  2-samecut
   ICHARG =      2    charge: 1-file 2-atom 10-const
   ISPIN  =      2    spin polarized calculation?
   LNONCOLLINEAR =      F non collinear calculations
   LSORBIT =      F    spin-orbit coupling
   INIWAV =      1    electr: 0-lowe 1-rand  2-diag
   LASPH  =      F    aspherical Exc in radial PAW
   METAGGA=      F    non-selfconsistent MetaGGA calc.

 Electronic Relaxation 1
   ENCUT  =  500.0 eV  36.75 Ry    6.06 a.u.  23.35 11.80 47.19*2*pi/ulx,y,z
   ENINI  =  500.0     initial cutoff
   ENAUG  =  605.4 eV  augmentation charge cutoff
   NELM   =     60;   NELMIN=  4; NELMDL= -5     # of ELM steps
   EDIFF  = 0.1E-05   stopping-criterion for ELM
   LREAL  =      T    real-space projection
   NLSPLINE    = F    spline interpolate recip. space projectors
   LCOMPAT=      F    compatible to vasp.4.4
   GGA_COMPAT  = T    GGA compatible to vasp.4.4-vasp.4.6
   LMAXPAW     = -100 max onsite density
   LMAXMIX     =    2 max onsite mixed and CHGCAR
   VOSKOWN=      0    Vosko Wilk Nusair interpolation
   ROPT   =   -0.00050  -0.00050  -0.00050  -0.00050
 Ionic relaxation
   EDIFFG = -.5E-01   stopping-criterion for IOM
   NSW    =   1201    number of steps for IOM
   NBLOCK =      1;   KBLOCK =   1201    inner block; outer block
   IBRION =      5    ionic relax: 0-MD 1-quasi-New 2-CG
   NFREE  =      2    steps in history (QN), initial steepest desc. (CG)
   ISIF   =      2    stress and relaxation
   IWAVPR =     11    prediction:  0-non 1-charg 2-wave 3-comb
   ISYM   =      2    0-nonsym 1-usesym 2-fastsym
   LCORR  =      T    Harris-Foulkes like correction to forces

   POTIM  = 0.5000    time-step for ionic-motion
   TEIN   =    0.0    initial temperature
   TEBEG  =    0.0;   TEEND  =   0.0 temperature during run
   SMASS  =  -3.00    Nose mass-parameter (am)
   estimated Nose-frequenzy (Omega)   =  0.10E-29 period in steps =****** mass=  -0.375E-26a.u.
   SCALEE = 1.0000    scale energy and forces
   NPACO  =    256;   APACO  = 16.0  distance and # of slots for P.C.
   PSTRESS=    0.0 pullay stress

  Mass of Ions in am
   POMASS = 192.22 16.00192.22 16.00
  Ionic Valenz
   ZVAL   =   9.00  6.00  9.00  6.00
  Atomic Wigner-Seitz radii
  virtual crystal weights
   VCA    =   1.00  1.00  1.00  1.00
   NELECT =     678.0000    total number of electrons
[...]
     11.22339      3.23512     11.34747        -0.012081      0.000000      0.026851
      8.00671      0.00000      8.11075        -0.007305      0.000000     -0.030203
     11.18722      0.00000      8.09851         0.010188      0.000000     -0.018729
[...]
      6.41136      0.00000      6.85261         0.004843      0.000000     -0.009026
      9.60246      0.00000      6.85322        -0.004264      0.000000      0.014924
      8.00929      5.22664     11.33210         0.005349     -0.002266      0.012703
     11.21595      5.22538     11.40066        -0.007606     -0.001988      0.015673
      8.00629      1.99083      8.10753        -0.009341      0.007827      0.013805
     11.20554      1.99345      8.11121        -0.006361      0.003178      0.006581
      6.41776      3.23512     12.50258        -0.021887      0.000000      0.022083
      6.40192      0.00000      9.35599         0.021336      0.000000     -0.000581
      9.61009      0.00000      9.36739         0.000422      0.000000      0.007964
      8.00929      1.24360     11.33210         0.005349      0.002266      0.012703
     11.21595      1.24486     11.40066        -0.007606      0.001988      0.015673
      8.00629      4.47941      8.10753        -0.009341     -0.007827      0.013805
     11.20554      4.47679      8.11121        -0.006361     -0.003178      0.006581
      9.58626      0.00000     13.27185         0.030188      0.000000      0.015862
      6.43215      0.00000     13.23769        -0.002452      0.000000      0.524126
    total drift:                                0.055003     -0.000591      0.123566

  FREE ENERGIE OF THE ION-ELECTRON SYSTEM (eV)
  free  energy   TOTEN  =      -619.59994295 eV

  energy  without entropy=     -619.52853663  energy(sigma->0) =     -619.56423979

 d Force =-0.1482618E-02[-0.157E-01, 0.128E-01]  d Energy =-0.1183848E-02-0.299E-03
 d Force =-0.6192714E+02[-0.621E+02,-0.617E+02]  d Ewald  =-0.6192648E+02-0.659E-03

 stress matrix after NEB project (eV)
    -19.17203      0.00000     -0.41479
      0.00000     -8.90945      0.00000
     -0.41479      0.00000     -3.92208
  FORCES: max atom, RMS     0.524132    0.053330
  FORCE total and by dimension    0.525240    0.524126
  Stress total and by dimension   21.509808   19.172028
 Finite differences progress:
  Degree of freedom:   6/  6
  Displacement:        2/  2
  Total:              12/ 12

 SECOND DERIVATIVES (NOT SYMMETRIZED)
              96X         96Y         96Z         97X         97Y         97Z
 96X    -4.727452   -0.000000    1.120176    0.031416   -0.000000   -0.039126
 96Y     0.004933   -3.279428    0.003309    0.000437   -0.013726    0.000711
 96Z     0.820265   -0.000000  -32.924777    0.007568   -0.000000   -0.123646
 97X     0.000430   -0.000000    0.020427   -1.646529   -0.000000   -0.621668
 97Y     0.000153   -0.038172   -0.000098    0.000457   -1.241534    0.000953
 97Z    -0.020450    0.000000   -0.143172   -1.057105    0.000000  -31.647046

 Eigenvectors and eigenvalues of the dynamical matrix

   1 f  =   22.441924 THz   141.006764 2PiTHz  748.581968 cm-1    92.812369 meV
             X         Y         Z           dx          dy          dz
      1.601066  3.235121  4.852682            0           0           0
      4.803199  3.235121  4.852682            0           0           0
      1.601066  0.000000  1.617561            0           0           0
      4.803199  0.000000  1.617561            0           0           0
      0.000000  3.235121  1.617561            0           0           0
      3.202133  3.235121  1.617561            0           0           0
      0.000000  0.000000  4.852682            0           0           0
      3.202133  0.000000  4.852682            0           0           0
      1.607337  3.235121 11.354062            0           0           0
      4.805747  3.235121 11.338854            0           0           0
      1.600769  0.000000  8.069759            0           0           0
      4.826370  0.000000  8.089733            0           0           0
     12.804564  3.235121  8.097301            0           0           0
      3.204117  3.235121  8.091095            0           0           0
     12.802700  0.000000 11.260256            0           0           0
      3.201840  0.000000 11.249506            0           0           0
      0.000000  3.235121  3.613243            0           0           0
      3.202133  3.235121  3.613243            0           0           0
      0.000000  0.000000  0.378121            0           0           0
      3.202133  0.000000  0.378121            0           0           0
      1.601066  5.230803  4.852682            0           0           0
      4.803199  5.230803  4.852682            0           0           0
      1.601066  1.995682  1.617561            0           0           0
      4.803199  1.995682  1.617561            0           0           0
      0.000000  3.235121  6.092122            0           0           0
      3.202133  3.235121  6.092122            0           0           0
      0.000000  0.000000  2.857000            0           0           0
      3.202133  0.000000  2.857000            0           0           0
      1.601066  1.239440  4.852682            0           0           0
      4.803199  1.239440  4.852682            0           0           0
      1.601066  4.474561  1.617561            0           0           0
      4.803199  4.474561  1.617561            0           0           0
      0.046991  3.235121 10.061355            0           0           0
      3.202472  3.235121 10.079824            0           0           0
     12.800365  0.000000  6.843677            0           0           0
      3.208883  0.000000  6.842223            0           0           0
      1.605056  5.242757 11.401143            0           0           0
      4.795280  5.233654 11.362390            0           0           0
      1.599862  1.995135  8.075108            0           0           0
      4.810375  1.992480  8.074347            0           0           0
     12.803376  3.235121 12.534107            0           0           0
      3.215423  3.235121 12.517826            0           0           0
      0.000712  0.000000  9.305759            0           0           0
      3.205689  0.000000  9.299940            0           0           0
      1.605056  1.227486 11.401143            0           0           0
      4.795280  1.236589 11.362390            0           0           0
      1.599862  4.475108  8.075108            0           0           0
      4.810375  4.477763  8.074347            0           0           0
      8.005332  3.235121  4.852682            0           0           0
     11.207465  3.235121  4.852682            0           0           0
      8.005332  0.000000  1.617561            0           0           0
     11.207465  0.000000  1.617561            0           0           0
      6.404266  3.235121  1.617561            0           0           0
      9.606399  3.235121  1.617561            0           0           0
      6.404266  0.000000  4.852682            0           0           0
      9.606399  0.000000  4.852682            0           0           0
      7.990810  3.235121 11.321040            0           0           0
     11.223389  3.235121 11.347471            0           0           0
      8.006708  0.000000  8.110754            0           0           0
     11.187218  0.000000  8.098508            0           0           0
[...]
      6.411361  0.000000  6.852611            0           0           0
      9.602461  0.000000  6.853224            0           0           0
      8.009294  5.226641 11.332096            0           0           0
     11.215950  5.225385 11.400662            0           0           0
      8.006286  1.990830  8.107532            0           0           0
     11.205539  1.993450  8.111206            0           0           0
      6.417757  3.235121 12.502581            0           0           0
      6.401922  0.000000  9.355995            0           0           0
      9.610088  0.000000  9.367394            0           0           0
      8.009294  1.243602 11.332096            0           0           0
     11.215950  1.244858 11.400662            0           0           0
      8.006286  4.479413  8.107532            0           0           0
     11.205539  4.476793  8.111206            0           0           0
      9.586259  0.000000 13.271852    -0.034051   -0.000054    0.994318
      6.432149  0.000000 13.252689     0.002275    0.000000    0.100831

[...]

   6 f  =    4.354238 THz    27.358482 2PiTHz  145.241732 cm-1    18.007686 meV
             X         Y         Z           dx          dy          dz
      1.601066  3.235121  4.852682            0           0           0
      4.803199  3.235121  4.852682            0           0           0
      1.601066  0.000000  1.617561            0           0           0
      4.803199  0.000000  1.617561            0           0           0
      0.000000  3.235121  1.617561            0           0           0
      3.202133  3.235121  1.617561            0           0           0
      0.000000  0.000000  4.852682            0           0           0
      3.202133  0.000000  4.852682            0           0           0
      1.607337  3.235121 11.354062            0           0           0
      4.805747  3.235121 11.338854            0           0           0
      1.600769  0.000000  8.069759            0           0           0
      4.826370  0.000000  8.089733            0           0           0
     12.804564  3.235121  8.097301            0           0           0
      3.204117  3.235121  8.091095            0           0           0
     12.802700  0.000000 11.260256            0           0           0
      3.201840  0.000000 11.249506            0           0           0
      0.000000  3.235121  3.613243            0           0           0
      3.202133  3.235121  3.613243            0           0           0
      0.000000  0.000000  0.378121            0           0           0
      3.202133  0.000000  0.378121            0           0           0
      1.601066  5.230803  4.852682            0           0           0
      4.803199  5.230803  4.852682            0           0           0
      1.601066  1.995682  1.617561            0           0           0
      4.803199  1.995682  1.617561            0           0           0
      0.000000  3.235121  6.092122            0           0           0
      3.202133  3.235121  6.092122            0           0           0
      0.000000  0.000000  2.857000            0           0           0
      3.202133  0.000000  2.857000            0           0           0
      1.601066  1.239440  4.852682            0           0           0
      4.803199  1.239440  4.852682            0           0           0
      1.601066  4.474561  1.617561            0           0           0
      4.803199  4.474561  1.617561            0           0           0
      0.046991  3.235121 10.061355            0           0           0
      3.202472  3.235121 10.079824            0           0           0
     12.800365  0.000000  6.843677            0           0           0
      3.208883  0.000000  6.842223            0           0           0
      1.605056  5.242757 11.401143            0           0           0
      4.795280  5.233654 11.362390            0           0           0
      1.599862  1.995135  8.075108            0           0           0
      4.810375  1.992480  8.074347            0           0           0
     12.803376  3.235121 12.534107            0           0           0
      3.215423  3.235121 12.517826            0           0           0
      0.000712  0.000000  9.305759            0           0           0
      3.205689  0.000000  9.299940            0           0           0
      1.605056  1.227486 11.401143            0           0           0
      4.795280  1.236589 11.362390            0           0           0
      1.599862  4.475108  8.075108            0           0           0
      4.810375  4.477763  8.074347            0           0           0
      8.005332  3.235121  4.852682            0           0           0
     11.207465  3.235121  4.852682            0           0           0
      8.005332  0.000000  1.617561            0           0           0
     11.207465  0.000000  1.617561            0           0           0
      6.404266  3.235121  1.617561            0           0           0
      9.606399  3.235121  1.617561            0           0           0
      6.404266  0.000000  4.852682            0           0           0
      9.606399  0.000000  4.852682            0           0           0
      7.990810  3.235121 11.321040            0           0           0
     11.223389  3.235121 11.347471            0           0           0
      8.006708  0.000000  8.110754            0           0           0
     11.187218  0.000000  8.098508            0           0           0
[...]
      6.411361  0.000000  6.852611            0           0           0
      9.602461  0.000000  6.853224            0           0           0
      8.009294  5.226641 11.332096            0           0           0
     11.215950  5.225385 11.400662            0           0           0
      8.006286  1.990830  8.107532            0           0           0
     11.205539  1.993450  8.111206            0           0           0
      6.417757  3.235121 12.502581            0           0           0
      6.401922  0.000000  9.355995            0           0           0
      9.610088  0.000000  9.367394            0           0           0
      8.009294  1.243602 11.332096            0           0           0
     11.215950  1.244858 11.400662            0           0           0
      8.006286  4.479413  8.107532            0           0           0
     11.205539  4.476793  8.111206            0           0           0
      9.586259  0.000000 13.271852     0.000015   -0.012730   -0.000002
      6.432149  0.000000 13.252689     0.000557    0.999919    0.000000

 Finite differences POTIM=  1.500000000000000E-002
  LATTYP: Found a simple orthorhombic cell.
 ALAT       =     6.4702430000
 B/A-ratio  =     1.9796060210
 C/A-ratio  =     4.0000000000

  Lattice vectors:

 A1 = (   0.0000000000,  -6.4702430000,   0.0000000000)
 A2 = ( -12.8085320000,   0.0000000000,   0.0000000000)
 A3 = (   0.0000000000,   0.0000000000, -25.8809720000)

Analysis of symmetry for initial positions (statically):
 Subroutine PRICEL returns:
 Original cell was already a primitive cell.

[...]

The static configuration has the point symmetry C_1h.

Analysis of symmetry for dynamics (positions and initial velocities):
 Subroutine PRICEL returns:
 Original cell was already a primitive cell.

[...]

The dynamic configuration has the point symmetry C_1h.

Analysis of constrained symmetry for selective dynamics:
 Subroutine PRICEL returns:
 Original cell was already a primitive cell.

[...]

The constrained configuration has the point symmetry C_1h.

Analysis of structural, dynamic, and magnetic symmetry:
 Subroutine PRICEL returns:
 Original cell was already a primitive cell.

 Routine SETGRP: Setting up the symmetry group for a
 simple orthorhombic supercell.

 Subroutine GETGRP returns: Found  2 space group operations
 (whereof  2 operations were pure point group operations)
 out of a pool of  8 trial point group operations.

The magnetic configuration has the point symmetry C_1h.

 Subroutine INISYM returns: Found  2 space group operations
 (whereof  2 operations are pure point group operations),
 and found     1 'primitive' translations

 KPOINTS: Automatic mesh

Automatic generation of k-mesh.
Space group operators:
 irot       det(A)        alpha          n_x          n_y          n_z        tau_x        tau_y        tau_z
    1     1.000000     0.000001     1.000000     0.000000     0.000000     0.000000     0.000000     0.000000
    2    -1.000000   180.000000     0.000000     1.000000     0.000000     0.000000     0.000000     0.000000

 Subroutine IBZKPT returns following result:

 Found      4 irreducible k-points:

 Following reciprocal coordinates:
            Coordinates               Weight
  0.000000  0.000000  0.000000      1.000000
  0.333333  0.000000  0.000000      2.000000
  0.000000  0.333333  0.000000      2.000000
  0.333333  0.333333  0.000000      4.000000

 Following cartesian coordinates:
            Coordinates               Weight
  0.000000  0.000000  0.000000      1.000000
  0.026024  0.000000  0.000000      2.000000
  0.000000  0.051518  0.000000      2.000000
  0.026024  0.051518  0.000000      4.000000