 vasp.5.4.4.18Apr17-6-g9f103f2a35 (build Feb 25 2019 10:51:38) complex

 executed on             LinuxIFC date 2023.03.14  11:40:25

 INCAR:
 POTCAR:    PAW_PBE Ir 06Sep2000
 POTCAR:    PAW_PBE O 08Apr2002
 POTCAR:    PAW_PBE Ir 06Sep2000
 POTCAR:    PAW_PBE O 08Apr2002

 POTCAR:    PAW_PBE Ir 06Sep2000
   VRHFIN =Ir: s1d8

   TITEL  = PAW_PBE Ir 06Sep2000
   POMASS =  192.220; ZVAL   =    9.000    mass and valenz
   ENMAX  =  210.864; ENMIN  =  158.148 eV

 POTCAR:    PAW_PBE O 08Apr2002
   VRHFIN =O: s2p4

   TITEL  = PAW_PBE O 08Apr2002
   POMASS =   16.000; ZVAL   =    6.000    mass and valenz
   ENMAX  =  400.000; ENMIN  =  300.000 eV

 POTCAR:    PAW_PBE Ir 06Sep2000
   VRHFIN =Ir: s1d8

   TITEL  = PAW_PBE Ir 06Sep2000
   POMASS =  192.220; ZVAL   =    9.000    mass and valenz
   ENMAX  =  210.864; ENMIN  =  158.148 eV

 POTCAR:    PAW_PBE O 08Apr2002
   VRHFIN =O: s2p4

   TITEL  = PAW_PBE O 08Apr2002
   POMASS =   16.000; ZVAL   =    6.000    mass and valenz
   ENMAX  =  400.000; ENMIN  =  300.000 eV

 Optimization of the real space projectors (new method)

 maximal supplied QI-value         = 14.36
 optimisation between [QCUT,QGAM] = [ 11.35, 22.84] = [ 36.05,146.02] Ry
 Optimized for a Real-space Cutoff    1.52 Angstroem

   l    n(q)    QCUT    max X(q) W(low)/X(q) W(high)/X(q)  e(spline)
   2      9    11.346   134.116    0.47E-03    0.13E-03    0.92E-06
   2      9    11.346   130.192    0.47E-03    0.13E-03    0.92E-06
   0     10    11.346    60.310    0.74E-04    0.13E-03    0.69E-06
   0     10    11.346    39.218    0.68E-04    0.12E-03    0.65E-06
   1     10    11.346    18.439    0.15E-03    0.34E-04    0.20E-06
   1     10    11.346    12.760    0.12E-03    0.31E-04    0.16E-06
 Optimization of the real space projectors (new method)

[...]

   l    n(q)    QCUT    max X(q) W(low)/X(q) W(high)/X(q)  e(spline)
   2      9    11.346   134.116    0.47E-03    0.13E-03    0.92E-06
   2      9    11.346   130.192    0.47E-03    0.13E-03    0.92E-06
   0     10    11.346    60.310    0.74E-04    0.13E-03    0.69E-06
   0     10    11.346    39.218    0.68E-04    0.12E-03    0.65E-06
   1     10    11.346    18.439    0.15E-03    0.34E-04    0.20E-06
   1     10    11.346    12.760    0.12E-03    0.31E-04    0.16E-06
 Optimization of the real space projectors (new method)

 maximal supplied QI-value         = 24.76
 optimisation between [QCUT,QGAM] = [ 11.39, 22.77] = [ 36.31,145.25] Ry
 Optimized for a Real-space Cutoff    1.00 Angstroem

   l    n(q)    QCUT    max X(q) W(low)/X(q) W(high)/X(q)  e(spline)
   0      7    11.387    20.381    0.39E-03    0.13E-02    0.15E-06
   0      7    11.387    15.268    0.42E-03    0.14E-02    0.17E-06
   1      6    11.387     5.964    0.41E-03    0.11E-02    0.17E-06
   1      6    11.387     5.382    0.39E-03    0.87E-03    0.15E-06

  PAW_PBE Ir 06Sep2000                  :
  PAW_PBE O 08Apr2002                   :
  PAW_PBE Ir 06Sep2000                  :
  PAW_PBE O 08Apr2002                   :

 POSCAR: Ir  O Ir  O
  positions in cartesian coordinates
 exchange correlation table for  LEXCH =        9
   RHO(1)=    0.500       N(1)  =     2000
   RHO(2)=  100.500       N(2)  =     4000

 VTST: version 3.2, (02/03/18)

 CHAIN: initializing optimizer

 OPT: Using VASP Dynamics algorithm
 CHAIN: Read ICHAIN            0

 POSCAR: Ir  O Ir  O
  positions in cartesian coordinates

 ion  position               nearest neighbor table
   1  0.125  0.500  0.188-  20 2.00  28 2.00  16 2.02  24 2.02  25 2.02  17 2.02   2 3.20  49 3.20

   2  0.375  0.500  0.188-  21 2.00  29 2.00  25 2.02  17 2.02  64 2.02  72 2.02   1 3.20  48 3.20

[...]

  62  0.499  0.000  0.435-  90 1.94  84 2.03  92 2.03  45 2.03  37 2.03  15 3.29  63 3.29
  63  0.756  0.000  0.443-  96 1.79  93 1.94  85 1.94  84 2.09  92 2.09  91 2.13  62 3.29
  64  0.500  0.500  0.140-  52 2.00  48 2.02   2 2.02
  65  0.750  0.500  0.140-  53 2.00  49 2.02  48 2.02
  66  0.500  0.000  0.015-   4 2.02  50 2.02
  67  0.750  0.000  0.015-  50 2.02  51 2.02
  68  0.625  0.808  0.188-  48 2.00  54 2.02  55 2.02
  69  0.875  0.808  0.188-  49 2.00   7 2.02  55 2.02
  70  0.625  0.308  0.062-  50 2.00  52 2.02  53 2.02
  71  0.875  0.308  0.062-  51 2.00   5 2.02  53 2.02
  72  0.500  0.500  0.235-  60 2.02  48 2.02   2 2.02
  73  0.750  0.500  0.235-  61 2.01  49 2.02  48 2.02
  74  0.500  0.000  0.110-  54 2.00  50 2.02   4 2.02
  75  0.750  0.000  0.110-  55 2.00  51 2.02  50 2.02
  76  0.625  0.192  0.188-  48 2.00  54 2.02  55 2.02
  77  0.875  0.192  0.188-  49 2.00   7 2.02  55 2.02
  78  0.625  0.692  0.062-  50 2.00  52 2.02  53 2.02
  79  0.875  0.692  0.062-  51 2.00   5 2.02  53 2.02
  80  0.499  0.500  0.390-  60 1.99  56 2.03  10 2.04
  81  0.748  0.500  0.390-  61 1.99  56 2.03  57 2.06
  82  0.501  0.000  0.264-  54 1.99  12 2.03  58 2.04
  83  0.750  0.000  0.265-  55 2.00  58 2.00  59 2.05
  84  0.624  0.809  0.439-  56 2.00  62 2.03  63 2.09
  85  0.866  0.796  0.437-  57 1.92  63 1.94
  86  0.626  0.308  0.313-  58 1.99  61 2.02  60 2.03
  87  0.875  0.308  0.313-  59 1.99  13 2.02  61 2.03
  88  0.500  0.500  0.485-  10 1.99  56 1.99
  89  0.748  0.500  0.485-  56 1.99  57 2.00
  90  0.500  0.000  0.360-  62 1.94  12 2.02  58 2.03
  91  0.751  0.000  0.361-  58 2.02  59 2.04  63 2.13
  92  0.624  0.191  0.439-  56 2.00  62 2.03  63 2.09
  93  0.866  0.204  0.437-  57 1.92  63 1.94
  94  0.626  0.692  0.313-  58 1.99  61 2.02  60 2.03
  95  0.875  0.692  0.313-  59 1.99  13 2.02  61 2.03
  96  0.747  0.000  0.512-  63 1.79

  LATTYP: Found a simple orthorhombic cell.
 ALAT       =     6.4702430000
 B/A-ratio  =     1.9796060210
 C/A-ratio  =     4.0000000000

  Lattice vectors:

 A1 = (   0.0000000000,  -6.4702430000,   0.0000000000)
 A2 = ( -12.8085320000,   0.0000000000,   0.0000000000)
 A3 = (   0.0000000000,   0.0000000000, -25.8809720000)

Analysis of symmetry for initial positions (statically):
 Subroutine PRICEL returns:
 Original cell was already a primitive cell.

 Routine SETGRP: Setting up the symmetry group for a
 simple orthorhombic supercell.

 Subroutine GETGRP returns: Found  2 space group operations
 (whereof  2 operations were pure point group operations)
 out of a pool of  8 trial point group operations.

The static configuration has the point symmetry C_1h.

Analysis of symmetry for dynamics (positions and initial velocities):
 Subroutine PRICEL returns:
 Original cell was already a primitive cell.

[...]

The dynamic configuration has the point symmetry C_1h.

Analysis of constrained symmetry for selective dynamics:
 Subroutine PRICEL returns:
 Original cell was already a primitive cell.

[...]

The constrained configuration has the point symmetry C_1h.

Analysis of structural, dynamic, and magnetic symmetry:
 Subroutine PRICEL returns:
 Original cell was already a primitive cell.

[...]

The magnetic configuration has the point symmetry C_1h.

 Subroutine INISYM returns: Found  2 space group operations
 (whereof  2 operations are pure point group operations),
 and found     1 'primitive' translations

 KPOINTS: Automatic mesh

Automatic generation of k-mesh.
Space group operators:
 irot       det(A)        alpha          n_x          n_y          n_z        tau_x        tau_y        tau_z
    1     1.000000     0.000001     1.000000     0.000000     0.000000     0.000000     0.000000     0.000000
    2    -1.000000   180.000000     0.000000     1.000000     0.000000     0.000000     0.000000     0.000000

 Subroutine IBZKPT returns following result:

 Found      4 irreducible k-points:

 Following reciprocal coordinates:
            Coordinates               Weight
  0.000000  0.000000  0.000000      1.000000
  0.333333  0.000000  0.000000      2.000000
  0.000000  0.333333  0.000000      2.000000
  0.333333  0.333333  0.000000      4.000000

 Following cartesian coordinates:
            Coordinates               Weight
  0.000000  0.000000  0.000000      1.000000
  0.026024  0.000000  0.000000      2.000000
  0.000000  0.051518  0.000000      2.000000
  0.026024  0.051518  0.000000      4.000000

 Subroutine IBZKPT_HF returns following result:

 Found      9 k-points in 1st BZ
 the following      9 k-points will be used (e.g. in the exchange kernel)
 Following reciprocal coordinates:   # in IRBZ
  0.000000  0.000000  0.000000    0.11111111   1 t-inv F
  0.333333  0.000000  0.000000    0.11111111   2 t-inv F
  0.000000  0.333333  0.000000    0.11111111   3 t-inv F
  0.333333  0.333333  0.000000    0.11111111   4 t-inv F
  0.000000 -0.333333  0.000000    0.11111111   3 t-inv F
  0.333333 -0.333333  0.000000    0.11111111   4 t-inv F
 -0.333333  0.000000  0.000000    0.11111111   2 t-inv T
 -0.333333 -0.333333  0.000000    0.11111111   4 t-inv T
 -0.333333  0.333333  0.000000    0.11111111   4 t-inv T

 SYSTEM =  unknown system
 POSCAR =  Ir  O Ir  O

 Startparameter for this run:
   NWRITE =      2    write-flag & timer
   PREC   = normal    normal or accurate (medium, high low for compatibility)
   ISTART =      0    job   : 0-new  1-cont  2-samecut
   ICHARG =      2    charge: 1-file 2-atom 10-const
   ISPIN  =      2    spin polarized calculation?
   LNONCOLLINEAR =      F non collinear calculations
   LSORBIT =      F    spin-orbit coupling
   INIWAV =      1    electr: 0-lowe 1-rand  2-diag
   LASPH  =      F    aspherical Exc in radial PAW
   METAGGA=      F    non-selfconsistent MetaGGA calc.

 Electronic Relaxation 1
   ENCUT  =  500.0 eV  36.75 Ry    6.06 a.u.  23.35 11.80 47.19*2*pi/ulx,y,z
   ENINI  =  500.0     initial cutoff
   ENAUG  =  605.4 eV  augmentation charge cutoff
   NELM   =     60;   NELMIN=  4; NELMDL= -5     # of ELM steps
   EDIFF  = 0.1E-05   stopping-criterion for ELM
   LREAL  =      T    real-space projection
   NLSPLINE    = F    spline interpolate recip. space projectors
   LCOMPAT=      F    compatible to vasp.4.4
   GGA_COMPAT  = T    GGA compatible to vasp.4.4-vasp.4.6
   LMAXPAW     = -100 max onsite density
   LMAXMIX     =    2 max onsite mixed and CHGCAR
   VOSKOWN=      0    Vosko Wilk Nusair interpolation
   ROPT   =   -0.00050  -0.00050  -0.00050  -0.00050
 Ionic relaxation
   EDIFFG = -.5E-01   stopping-criterion for IOM
   NSW    =   1189    number of steps for IOM
   NBLOCK =      1;   KBLOCK =   1189    inner block; outer block
   IBRION =      5    ionic relax: 0-MD 1-quasi-New 2-CG
   NFREE  =      2    steps in history (QN), initial steepest desc. (CG)
   ISIF   =      2    stress and relaxation
   IWAVPR =     11    prediction:  0-non 1-charg 2-wave 3-comb
   ISYM   =      2    0-nonsym 1-usesym 2-fastsym
   LCORR  =      T    Harris-Foulkes like correction to forces

   POTIM  = 0.5000    time-step for ionic-motion
   TEIN   =    0.0    initial temperature
   TEBEG  =    0.0;   TEEND  =   0.0 temperature during run
   SMASS  =  -3.00    Nose mass-parameter (am)
   estimated Nose-frequenzy (Omega)   =  0.10E-29 period in steps =****** mass=  -0.375E-26a.u.
   SCALEE = 1.0000    scale energy and forces
   NPACO  =    256;   APACO  = 16.0  distance and # of slots for P.C.
   PSTRESS=    0.0 pullay stress

  Mass of Ions in am
   POMASS = 192.22 16.00192.22 16.00
  Ionic Valenz
[...]
      6.40427      0.00000      4.85268         0.011523      0.000000     -0.213104
      9.60640      0.00000      4.85268        -0.157585      0.000000     -0.122053
      7.99460      3.23512     11.35642        -0.023467      0.000000     -0.039215
     11.18988      3.23512     11.37788        -0.017504      0.000000     -0.014103
      8.03433      0.00000      8.09417         0.000177      0.000000     -0.001483
     11.23280      0.00000      8.09435        -0.019238      0.000000      0.000806
      6.40708      3.23512      8.10813        -0.002328      0.000000      0.007564
[...]
      6.41656      0.00000      6.84477        -0.015792      0.000000      0.021175
      9.60545      0.00000      6.84912         0.014994      0.000000     -0.009872
      7.99779      5.23303     11.36386        -0.004985     -0.021062     -0.011247
     11.09137      5.14953     11.30340         0.024894      0.016932     -0.006505
      8.01263      1.99362      8.09710         0.001449     -0.001131     -0.003410
     11.21167      1.99007      8.09138         0.003942      0.008015      0.008475
      6.40538      3.23512     12.54745         0.000860      0.000000      0.018859
      9.57878      3.23512     12.55775         0.009416      0.000000      0.017569
      6.40586      0.00000      9.30553        -0.009529      0.000000     -0.007787
      9.61836      0.00000      9.34426         0.008736      0.000000      0.003679
      7.99779      1.23721     11.36386        -0.004985      0.021062     -0.011247
     11.09137      1.32071     11.30340         0.024894     -0.016932     -0.006505
      8.01263      4.47662      8.09710         0.001449      0.001131     -0.003410
     11.21167      4.48018      8.09138         0.003942     -0.008015      0.008475
      9.57398      0.00000     13.24496        -0.078120      0.000000      0.529754
    total drift:                                0.040373     -0.009427      0.289766

  FREE ENERGIE OF THE ION-ELECTRON SYSTEM (eV)
  free  energy   TOTEN  =      -612.13096082 eV

  energy  without entropy=     -612.06180425  energy(sigma->0) =     -612.09638254

 d Force =-0.1440489E-02[-0.159E-01, 0.130E-01]  d Energy =-0.1030972E-02-0.410E-03
 d Force =-0.6099956E+02[-0.612E+02,-0.608E+02]  d Ewald  =-0.6099887E+02-0.694E-03

 stress matrix after NEB project (eV)
    -27.99695      0.00000     -0.40038
      0.00000    -13.67155      0.00000
     -0.40038      0.00000     -4.66314
  FORCES: max atom, RMS     0.535483    0.054653
  FORCE total and by dimension    0.535483    0.529754
  Stress total and by dimension   31.508822   27.996949
 Finite differences progress:
  Degree of freedom:   3/  3
  Displacement:        2/  2
  Total:               6/  6

 SECOND DERIVATIVES (NOT SYMMETRIZED)
              96X         96Y         96Z
 96X    -3.972221    0.000000    3.915794
 96Y     0.002812   -2.885264   -0.006959
 96Z     4.307329   -0.000000  -32.115846

 Eigenvectors and eigenvalues of the dynamical matrix

   1 f  =   22.350774 THz   140.434058 2PiTHz  745.541562 cm-1    92.435406 meV
             X         Y         Z           dx          dy          dz
      1.601066  3.235121  4.852682            0           0           0
      4.803199  3.235121  4.852682            0           0           0
      1.601066  0.000000  1.617561            0           0           0
      4.803199  0.000000  1.617561            0           0           0
      0.000000  3.235121  1.617561            0           0           0
      3.202133  3.235121  1.617561            0           0           0
      0.000000  0.000000  4.852682            0           0           0
      3.202133  0.000000  4.852682            0           0           0
      1.618764  3.235121 11.396852            0           0           0
      4.802797  3.235121 11.375987            0           0           0
      1.559503  0.000000  8.079583            0           0           0
      4.804334  0.000000  8.071149            0           0           0
     12.807331  3.235121  8.114386            0           0           0
      3.199637  3.235121  8.106608            0           0           0
      3.107169  0.000000 11.259583            0           0           0
      0.000000  3.235121  3.613243            0           0           0
      3.202133  3.235121  3.613243            0           0           0
      0.000000  0.000000  0.378121            0           0           0
      3.202133  0.000000  0.378121            0           0           0
      1.601066  5.230803  4.852682            0           0           0
      4.803199  5.230803  4.852682            0           0           0
      1.601066  1.995682  1.617561            0           0           0
      4.803199  1.995682  1.617561            0           0           0
      0.000000  3.235121  6.092122            0           0           0
      3.202133  3.235121  6.092122            0           0           0
      0.000000  0.000000  2.857000            0           0           0
      3.202133  0.000000  2.857000            0           0           0
      1.601066  1.239440  4.852682            0           0           0
      4.803199  1.239440  4.852682            0           0           0
      1.601066  4.474561  1.617561            0           0           0
      4.803199  4.474561  1.617561            0           0           0
      0.002379  3.235121 10.113169            0           0           0
      3.213782  3.235121 10.104251            0           0           0
     12.804502  0.000000  6.830596            0           0           0
      3.207910  0.000000  6.841853            0           0           0
      1.754431  5.140621 11.465489            0           0           0
      4.778286  5.244377 11.391985            0           0           0
      1.593076  1.993542  8.092580            0           0           0
      4.804759  1.995037  8.098559            0           0           0
     12.783975  3.235121 12.560821            0           0           0
      3.251488  3.235121 12.599022            0           0           0
      0.006759  0.000000  9.265724            0           0           0
      3.194005  0.000000  9.297062            0           0           0
      1.754431  1.329622 11.465489            0           0           0
      4.778286  1.225866 11.391985            0           0           0
      1.593076  4.476701  8.092580            0           0           0
      4.804759  4.475206  8.098559            0           0           0
      8.005332  3.235121  4.852682            0           0           0
     11.207465  3.235121  4.852682            0           0           0
      8.005332  0.000000  1.617561            0           0           0
     11.207465  0.000000  1.617561            0           0           0
      6.404266  3.235121  1.617561            0           0           0
      9.606399  3.235121  1.617561            0           0           0
      6.404266  0.000000  4.852682            0           0           0
      9.606399  0.000000  4.852682            0           0           0
      7.994597  3.235121 11.356417            0           0           0
     11.189880  3.235121 11.377884            0           0           0
      8.034332  0.000000  8.094172            0           0           0
     11.232800  0.000000  8.094347            0           0           0
      6.407082  3.235121  8.108131            0           0           0
[...]
      6.416556  0.000000  6.844769            0           0           0
      9.605445  0.000000  6.849122            0           0           0
      7.997787  5.233029 11.363860            0           0           0
     11.091368  5.149528 11.303395            0           0           0
      8.012627  1.993620  8.097101            0           0           0
     11.211668  1.990067  8.091380            0           0           0
      6.405377  3.235121 12.547447            0           0           0
      9.578784  3.235121 12.557746            0           0           0
      6.405859  0.000000  9.305528            0           0           0
      9.618361  0.000000  9.344265            0           0           0
      7.997787  1.237214 11.363860            0           0           0
     11.091368  1.320715 11.303395            0           0           0
      8.012627  4.476623  8.097101            0           0           0
     11.211668  4.480176  8.091380            0           0           0
      9.573983  0.000000 13.259963    -0.141657    0.000122    0.989916

[...]

   3 f  =    6.638705 THz    41.712214 2PiTHz  221.443360 cm-1    27.455487 meV
             X         Y         Z           dx          dy          dz
      1.601066  3.235121  4.852682            0           0           0
      4.803199  3.235121  4.852682            0           0           0
      1.601066  0.000000  1.617561            0           0           0
      4.803199  0.000000  1.617561            0           0           0
      0.000000  3.235121  1.617561            0           0           0
      3.202133  3.235121  1.617561            0           0           0
      0.000000  0.000000  4.852682            0           0           0
      3.202133  0.000000  4.852682            0           0           0
      1.618764  3.235121 11.396852            0           0           0
      4.802797  3.235121 11.375987            0           0           0
      1.559503  0.000000  8.079583            0           0           0
      4.804334  0.000000  8.071149            0           0           0
     12.807331  3.235121  8.114386            0           0           0
      3.199637  3.235121  8.106608            0           0           0
      3.107169  0.000000 11.259583            0           0           0
      0.000000  3.235121  3.613243            0           0           0
      3.202133  3.235121  3.613243            0           0           0
      0.000000  0.000000  0.378121            0           0           0
      3.202133  0.000000  0.378121            0           0           0
      1.601066  5.230803  4.852682            0           0           0
      4.803199  5.230803  4.852682            0           0           0
      1.601066  1.995682  1.617561            0           0           0
      4.803199  1.995682  1.617561            0           0           0
      0.000000  3.235121  6.092122            0           0           0
      3.202133  3.235121  6.092122            0           0           0
      0.000000  0.000000  2.857000            0           0           0
      3.202133  0.000000  2.857000            0           0           0
      1.601066  1.239440  4.852682            0           0           0
      4.803199  1.239440  4.852682            0           0           0
      1.601066  4.474561  1.617561            0           0           0
      4.803199  4.474561  1.617561            0           0           0
      0.002379  3.235121 10.113169            0           0           0
      3.213782  3.235121 10.104251            0           0           0
     12.804502  0.000000  6.830596            0           0           0
      3.207910  0.000000  6.841853            0           0           0
      1.754431  5.140621 11.465489            0           0           0
      4.778286  5.244377 11.391985            0           0           0
      1.593076  1.993542  8.092580            0           0           0
      4.804759  1.995037  8.098559            0           0           0
     12.783975  3.235121 12.560821            0           0           0
      3.251488  3.235121 12.599022            0           0           0
      0.006759  0.000000  9.265724            0           0           0
      3.194005  0.000000  9.297062            0           0           0
      1.754431  1.329622 11.465489            0           0           0
      4.778286  1.225866 11.391985            0           0           0
      1.593076  4.476701  8.092580            0           0           0
      4.804759  4.475206  8.098559            0           0           0
      8.005332  3.235121  4.852682            0           0           0
     11.207465  3.235121  4.852682            0           0           0
      8.005332  0.000000  1.617561            0           0           0
     11.207465  0.000000  1.617561            0           0           0
      6.404266  3.235121  1.617561            0           0           0
      9.606399  3.235121  1.617561            0           0           0
      6.404266  0.000000  4.852682            0           0           0
      9.606399  0.000000  4.852682            0           0           0
      7.994597  3.235121 11.356417            0           0           0
     11.189880  3.235121 11.377884            0           0           0
      8.034332  0.000000  8.094172            0           0           0
     11.232800  0.000000  8.094347            0           0           0
      6.407082  3.235121  8.108131            0           0           0
[...]
      6.416556  0.000000  6.844769            0           0           0
      9.605445  0.000000  6.849122            0           0           0
      7.997787  5.233029 11.363860            0           0           0
     11.091368  5.149528 11.303395            0           0           0
      8.012627  1.993620  8.097101            0           0           0
     11.211668  1.990067  8.091380            0           0           0
      6.405377  3.235121 12.547447            0           0           0
      9.578784  3.235121 12.557746            0           0           0
      6.405859  0.000000  9.305528            0           0           0
      9.618361  0.000000  9.344265            0           0           0
      7.997787  1.237214 11.363860            0           0           0
     11.091368  1.320715 11.303395            0           0           0
      8.012627  4.476623  8.097101            0           0           0
     11.211668  4.480176  8.091380            0           0           0
      9.573983  0.000000 13.259963     0.001802    0.999998    0.000134

 Finite differences POTIM=  1.500000000000000E-002
  LATTYP: Found a simple orthorhombic cell.
 ALAT       =     6.4702430000
 B/A-ratio  =     1.9796060210
 C/A-ratio  =     4.0000000000

  Lattice vectors:

 A1 = (   0.0000000000,  -6.4702430000,   0.0000000000)
 A2 = ( -12.8085320000,   0.0000000000,   0.0000000000)
 A3 = (   0.0000000000,   0.0000000000, -25.8809720000)

Analysis of symmetry for initial positions (statically):
 Subroutine PRICEL returns:
 Original cell was already a primitive cell.

[...]

The static configuration has the point symmetry C_1h.

Analysis of symmetry for dynamics (positions and initial velocities):
 Subroutine PRICEL returns:
 Original cell was already a primitive cell.

[...]

The dynamic configuration has the point symmetry C_1h.

Analysis of constrained symmetry for selective dynamics:
 Subroutine PRICEL returns:
 Original cell was already a primitive cell.

[...]

The constrained configuration has the point symmetry C_1h.

Analysis of structural, dynamic, and magnetic symmetry:
 Subroutine PRICEL returns:
 Original cell was already a primitive cell.

 Routine SETGRP: Setting up the symmetry group for a
 simple orthorhombic supercell.

 Subroutine GETGRP returns: Found  2 space group operations
 (whereof  2 operations were pure point group operations)
 out of a pool of  8 trial point group operations.

The magnetic configuration has the point symmetry C_1h.

 Subroutine INISYM returns: Found  2 space group operations
 (whereof  2 operations are pure point group operations),
 and found     1 'primitive' translations

 KPOINTS: Automatic mesh

Automatic generation of k-mesh.
Space group operators:
 irot       det(A)        alpha          n_x          n_y          n_z        tau_x        tau_y        tau_z
    1     1.000000     0.000001     1.000000     0.000000     0.000000     0.000000     0.000000     0.000000
    2    -1.000000   180.000000     0.000000     1.000000     0.000000     0.000000     0.000000     0.000000

 Subroutine IBZKPT returns following result:

 Found      4 irreducible k-points:

 Following reciprocal coordinates:
            Coordinates               Weight
  0.000000  0.000000  0.000000      1.000000
  0.333333  0.000000  0.000000      2.000000
  0.000000  0.333333  0.000000      2.000000
  0.333333  0.333333  0.000000      4.000000

 Following cartesian coordinates:
            Coordinates               Weight
  0.000000  0.000000  0.000000      1.000000
  0.026024  0.000000  0.000000      2.000000
  0.000000  0.051518  0.000000      2.000000
  0.026024  0.051518  0.000000      4.000000