 vasp.5.4.4.18Apr17-6-g9f103f2a35 (build Feb 25 2019 10:51:38) complex

 executed on             LinuxIFC date 2023.03.14  11:37:34

 INCAR:
 POTCAR:    PAW_PBE Ir 06Sep2000
 POTCAR:    PAW_PBE O 08Apr2002
 POTCAR:    PAW_PBE Ir 06Sep2000
 POTCAR:    PAW_PBE O 08Apr2002
 POTCAR:    PAW_PBE Ir 06Sep2000
   VRHFIN =Ir: s1d8

   TITEL  = PAW_PBE Ir 06Sep2000
   POMASS =  192.220; ZVAL   =    9.000    mass and valenz
   ENMAX  =  210.864; ENMIN  =  158.148 eV

 POTCAR:    PAW_PBE O 08Apr2002
   VRHFIN =O: s2p4

   TITEL  = PAW_PBE O 08Apr2002
   POMASS =   16.000; ZVAL   =    6.000    mass and valenz
   ENMAX  =  400.000; ENMIN  =  300.000 eV

 POTCAR:    PAW_PBE Ir 06Sep2000
   VRHFIN =Ir: s1d8

   TITEL  = PAW_PBE Ir 06Sep2000
   POMASS =  192.220; ZVAL   =    9.000    mass and valenz
   ENMAX  =  210.864; ENMIN  =  158.148 eV

 POTCAR:    PAW_PBE O 08Apr2002
   VRHFIN =O: s2p4

   TITEL  = PAW_PBE O 08Apr2002
   POMASS =   16.000; ZVAL   =    6.000    mass and valenz
   ENMAX  =  400.000; ENMIN  =  300.000 eV

 Optimization of the real space projectors (new method)

 maximal supplied QI-value         = 14.36
 optimisation between [QCUT,QGAM] = [ 11.35, 22.84] = [ 36.05,146.02] Ry
 Optimized for a Real-space Cutoff    1.52 Angstroem

   l    n(q)    QCUT    max X(q) W(low)/X(q) W(high)/X(q)  e(spline)
   2      9    11.346   134.116    0.47E-03    0.13E-03    0.92E-06
   2      9    11.346   130.192    0.47E-03    0.13E-03    0.92E-06
   0     10    11.346    60.310    0.74E-04    0.13E-03    0.69E-06
   0     10    11.346    39.218    0.68E-04    0.12E-03    0.65E-06
   1     10    11.346    18.439    0.15E-03    0.34E-04    0.20E-06
   1     10    11.346    12.760    0.12E-03    0.31E-04    0.16E-06
 Optimization of the real space projectors (new method)

[...]

   l    n(q)    QCUT    max X(q) W(low)/X(q) W(high)/X(q)  e(spline)
   2      9    11.346   134.116    0.47E-03    0.13E-03    0.92E-06
   2      9    11.346   130.192    0.47E-03    0.13E-03    0.92E-06
   0     10    11.346    60.310    0.74E-04    0.13E-03    0.69E-06
   0     10    11.346    39.218    0.68E-04    0.12E-03    0.65E-06
   1     10    11.346    18.439    0.15E-03    0.34E-04    0.20E-06
   1     10    11.346    12.760    0.12E-03    0.31E-04    0.16E-06
 Optimization of the real space projectors (new method)

 maximal supplied QI-value         = 24.76
 optimisation between [QCUT,QGAM] = [ 11.39, 22.77] = [ 36.31,145.25] Ry
 Optimized for a Real-space Cutoff    1.00 Angstroem

   l    n(q)    QCUT    max X(q) W(low)/X(q) W(high)/X(q)  e(spline)
   0      7    11.387    20.381    0.39E-03    0.13E-02    0.15E-06
   0      7    11.387    15.268    0.42E-03    0.14E-02    0.17E-06
   1      6    11.387     5.964    0.41E-03    0.11E-02    0.17E-06
   1      6    11.387     5.382    0.39E-03    0.87E-03    0.15E-06

  PAW_PBE Ir 06Sep2000                  :
  PAW_PBE O 08Apr2002                   :
  PAW_PBE Ir 06Sep2000                  :
  PAW_PBE O 08Apr2002                   :

 POSCAR: Ir  O Ir  O
  positions in cartesian coordinates
 exchange correlation table for  LEXCH =        9
   RHO(1)=    0.500       N(1)  =     2000
   RHO(2)=  100.500       N(2)  =     4000

 VTST: version 3.2, (02/03/18)

 CHAIN: initializing optimizer

 OPT: Using VASP Conjugate-Gradient optimizer
 CHAIN: Read ICHAIN            0

 POSCAR: Ir  O Ir  O
  positions in cartesian coordinates

 ion  position               nearest neighbor table
   1  0.125  0.500  0.188-  21 2.00  29 2.00  17 2.02  25 2.02  26 2.02  18 2.02   2 3.20  50 3.20

   2  0.375  0.500  0.188-  22 2.00  30 2.00  26 2.02  18 2.02  65 2.02  73 2.02   1 3.20  49 3.20

[...]

  65  0.500  0.500  0.140-  53 2.00  49 2.02   2 2.02
  66  0.750  0.500  0.140-  54 2.00  50 2.02  49 2.02
  67  0.500  0.000  0.015-   4 2.02  51 2.02
  68  0.750  0.000  0.015-  51 2.02  52 2.02
  69  0.625  0.808  0.188-  49 2.00  55 2.02  56 2.02
  70  0.875  0.808  0.188-  50 2.00   7 2.02  56 2.02
  71  0.625  0.308  0.062-  51 2.00  53 2.02  54 2.02
  72  0.875  0.308  0.062-  52 2.00   5 2.02  54 2.02
  73  0.500  0.500  0.235-  61 2.01  49 2.02   2 2.02
  74  0.750  0.500  0.235-  62 2.01  50 2.02  49 2.02
  75  0.500  0.000  0.110-  55 2.00  51 2.02   4 2.02
  76  0.750  0.000  0.110-  56 2.00  52 2.02  51 2.02
  77  0.625  0.192  0.188-  49 2.00  55 2.02  56 2.02
  78  0.875  0.192  0.188-  50 2.00   7 2.02  56 2.02
  79  0.625  0.692  0.062-  51 2.00  53 2.02  54 2.02
  80  0.875  0.692  0.062-  52 2.00   5 2.02  54 2.02
  81  0.500  0.500  0.390-  61 1.99  57 2.03  10 2.04
  82  0.750  0.500  0.390-  62 1.99  58 2.04  57 2.04
  83  0.501  0.000  0.264-  55 1.99  12 2.02  59 2.04
  84  0.750  0.000  0.264-  56 1.99  59 2.02  60 2.02
  85  0.624  0.809  0.438-  57 2.00  63 2.02  64 2.03
  86  0.876  0.809  0.439-  58 2.00  15 2.02  64 2.03
  87  0.625  0.308  0.313-  59 1.99  62 2.02  61 2.03
  88  0.875  0.308  0.313-  60 1.99  62 2.02  13 2.03
  89  0.501  0.500  0.485-  10 1.99  57 1.99
  90  0.500  0.000  0.359-  63 1.95  12 2.02  59 2.02
  91  0.750  0.000  0.362-  59 2.02  60 2.02  64 2.11
  92  0.624  0.191  0.438-  57 2.00  63 2.02  64 2.03
  93  0.876  0.191  0.439-  58 2.00  15 2.02  64 2.03
  94  0.625  0.692  0.313-  59 1.99  62 2.02  61 2.03
  95  0.875  0.692  0.313-  60 1.99  62 2.02  13 2.03
  96  0.749  0.000  0.513-  64 1.80

  LATTYP: Found a simple orthorhombic cell.
 ALAT       =     6.4702430000
 B/A-ratio  =     1.9796060210
 C/A-ratio  =     4.0000000000

  Lattice vectors:

 A1 = (   0.0000000000,  -6.4702430000,   0.0000000000)
 A2 = ( -12.8085320000,   0.0000000000,   0.0000000000)
 A3 = (   0.0000000000,   0.0000000000, -25.8809720000)

Analysis of symmetry for initial positions (statically):
 Subroutine PRICEL returns:
 Original cell was already a primitive cell.

 Routine SETGRP: Setting up the symmetry group for a
 simple orthorhombic supercell.

 Subroutine GETGRP returns: Found  2 space group operations
 (whereof  2 operations were pure point group operations)
 out of a pool of  8 trial point group operations.

The static configuration has the point symmetry C_1h.

Analysis of symmetry for dynamics (positions and initial velocities):
 Subroutine PRICEL returns:
 Original cell was already a primitive cell.

[...]

The dynamic configuration has the point symmetry C_1h.

Analysis of constrained symmetry for selective dynamics:
 Subroutine PRICEL returns:
 Original cell was already a primitive cell.

[...]

The constrained configuration has the point symmetry C_1h.

Analysis of structural, dynamic, and magnetic symmetry:
 Subroutine PRICEL returns:
 Original cell was already a primitive cell.

 Routine SETGRP: Setting up the symmetry group for a
 simple orthorhombic supercell.

 Subroutine GETGRP returns: Found  2 space group operations
 (whereof  2 operations were pure point group operations)
 out of a pool of  8 trial point group operations.

The magnetic configuration has the point symmetry C_1h.

 Subroutine INISYM returns: Found  2 space group operations
 (whereof  2 operations are pure point group operations),
 and found     1 'primitive' translations

 KPOINTS: Automatic mesh

Automatic generation of k-mesh.
Space group operators:
 irot       det(A)        alpha          n_x          n_y          n_z        tau_x        tau_y        tau_z
    1     1.000000     0.000001     1.000000     0.000000     0.000000     0.000000     0.000000     0.000000
    2    -1.000000   180.000000     0.000000     1.000000     0.000000     0.000000     0.000000     0.000000

 Subroutine IBZKPT returns following result:

 Found      4 irreducible k-points:

 Following reciprocal coordinates:
            Coordinates               Weight
  0.000000  0.000000  0.000000      1.000000
  0.333333  0.000000  0.000000      2.000000
  0.000000  0.333333  0.000000      2.000000
  0.333333  0.333333  0.000000      4.000000

 Following cartesian coordinates:
            Coordinates               Weight
  0.000000  0.000000  0.000000      1.000000
  0.026024  0.000000  0.000000      2.000000
  0.000000  0.051518  0.000000      2.000000
  0.026024  0.051518  0.000000      4.000000

 SYSTEM =  unknown system
 POSCAR =  Ir  O Ir  O

 Startparameter for this run:
   NWRITE =      2    write-flag & timer
   PREC   = normal    normal or accurate (medium, high low for compatibility)
   ISTART =      0    job   : 0-new  1-cont  2-samecut
   ICHARG =      2    charge: 1-file 2-atom 10-const
   ISPIN  =      2    spin polarized calculation?
   LNONCOLLINEAR =      F non collinear calculations
   LSORBIT =      F    spin-orbit coupling
   INIWAV =      1    electr: 0-lowe 1-rand  2-diag
   LASPH  =      F    aspherical Exc in radial PAW
   METAGGA=      F    non-selfconsistent MetaGGA calc.

 Electronic Relaxation 1
   ENCUT  =  500.0 eV  36.75 Ry    6.06 a.u.  23.35 11.80 47.19*2*pi/ulx,y,z
   ENINI  =  500.0     initial cutoff
   ENAUG  =  605.4 eV  augmentation charge cutoff
   NELM   =     60;   NELMIN=  4; NELMDL= -5     # of ELM steps
   EDIFF  = 0.1E-04   stopping-criterion for ELM
   LREAL  =      T    real-space projection
   NLSPLINE    = F    spline interpolate recip. space projectors
   LCOMPAT=      F    compatible to vasp.4.4
   GGA_COMPAT  = T    GGA compatible to vasp.4.4-vasp.4.6
   LMAXPAW     = -100 max onsite density
   LMAXMIX     =    2 max onsite mixed and CHGCAR
   VOSKOWN=      0    Vosko Wilk Nusair interpolation
   ROPT   =   -0.00050  -0.00050  -0.00050  -0.00050
 Ionic relaxation
   EDIFFG = -.5E-01   stopping-criterion for IOM
   NSW    =    500    number of steps for IOM
   NBLOCK =      1;   KBLOCK =    500    inner block; outer block
   IBRION =      2    ionic relax: 0-MD 1-quasi-New 2-CG
   NFREE  =      1    steps in history (QN), initial steepest desc. (CG)
   ISIF   =      2    stress and relaxation
   IWAVPR =     11    prediction:  0-non 1-charg 2-wave 3-comb
   ISYM   =      2    0-nonsym 1-usesym 2-fastsym
   LCORR  =      T    Harris-Foulkes like correction to forces

   POTIM  = 0.5000    time-step for ionic-motion
   TEIN   =    0.0    initial temperature
   TEBEG  =    0.0;   TEEND  =   0.0 temperature during run
   SMASS  =  -3.00    Nose mass-parameter (am)
   estimated Nose-frequenzy (Omega)   =  0.10E-29 period in steps =****** mass=  -0.375E-26a.u.
   SCALEE = 1.0000    scale energy and forces
   NPACO  =    256;   APACO  = 16.0  distance and # of slots for P.C.
   PSTRESS=    0.0 pullay stress

  Mass of Ions in am
   POMASS = 192.22 16.00192.22 16.00
  Ionic Valenz
   ZVAL   =   9.00  6.00  9.00  6.00
  Atomic Wigner-Seitz radii
  virtual crystal weights
   VCA    =   1.00  1.00  1.00  1.00
   NELECT =     672.0000    total number of electrons
   NUPDOWN=      -1.0000    fix difference up-down

 DOS related values:
   EMIN   =  10.00;   EMAX   =-10.00  energy-range for DOS
   EFERMI =   0.00
   ISMEAR =     0;   SIGMA  =   0.05  broadening in eV -4-tet -1-fermi 0-gaus

 Electronic relaxation 2 (details)
   IALGO  =     68    algorithm
   LDIAG  =      T    sub-space diagonalisation (order eigenvalues)
   LSUBROT=      F    optimize rotation matrix (better conditioning)
   TURBO    =      0    0=normal 1=particle mesh
[...]
   0.244E-01 0.567E-12 0.257E+04   -.225E-01 0.732E-13 -.256E+04   -.981E-04 0.000E+00 -.256E+01   -.190E-02 0.245E-12 0.845E-02
   0.328E+01 -.454E-12 0.816E+03   -.330E+01 0.497E-13 -.817E+03   -.954E-02 0.000E+00 0.802E-01   0.105E-02 -.412E-13 0.595E-01
   0.129E+00 -.758E-13 0.821E+03   -.127E+00 0.143E-14 -.822E+03   -.969E-04 0.000E+00 0.305E-01   -.201E-02 -.102E-12 0.600E-01
   0.773E+01 0.337E-12 -.241E+04   -.754E+01 -.641E-12 0.241E+04   -.198E+00 0.000E+00 -.185E+01   0.485E-02 -.287E-13 0.207E-01
   -.738E+01 0.105E-11 -.241E+04   0.718E+01 -.197E-10 0.241E+04   0.197E+00 0.000E+00 -.184E+01   0.490E-02 -.411E-12 0.215E-01
   0.338E+01 0.725E-12 -.821E+03   -.346E+01 0.746E-13 0.820E+03   0.724E-01 0.000E+00 0.601E+00   -.506E-02 0.106E-12 0.675E-01
   -.285E+01 -.297E-12 -.821E+03   0.292E+01 0.367E-12 0.820E+03   -.850E-01 0.000E+00 0.597E+00   0.661E-02 0.552E-13 0.724E-01
   0.111E+02 0.678E-12 -.821E+03   -.109E+02 -.139E-13 0.821E+03   -.166E+00 0.000E+00 -.172E+00   0.758E-02 -.467E-13 0.712E-01
   0.261E+00 0.115E-11 -.828E+03   -.264E+00 -.303E-12 0.828E+03   -.536E-02 0.000E+00 -.317E+00   0.387E-03 -.118E-12 0.721E-01
   -.104E+02 -.123E-11 -.249E+04   0.105E+02 0.550E-13 0.249E+04   -.116E+00 0.000E+00 0.359E+01   -.438E-02 -.868E-13 0.192E-01
   0.390E-01 -.115E-11 -.250E+04   -.478E-01 -.218E-11 0.250E+04   0.123E-02 0.000E+00 0.305E+01   0.486E-02 0.245E-12 0.233E-01
   0.135E+01 0.844E-12 0.101E+04   -.137E+01 -.113E-13 -.101E+04   0.640E-02 0.000E+00 -.170E+01   0.297E-02 0.256E-12 0.360E-01
   0.410E-01 0.633E-12 0.101E+04   -.400E-01 -.849E-14 -.101E+04   0.136E-02 0.000E+00 -.169E+01   -.194E-02 0.181E-12 0.344E-01
   0.235E+00 0.141E-11 0.202E+04   -.230E+00 0.728E-14 -.205E+04   -.113E-01 0.000E+00 0.277E+02   0.211E-02 -.161E-12 -.153E-01
   0.949E-02 0.351E-11 0.202E+04   -.834E-02 0.883E-14 -.205E+04   -.314E-03 0.000E+00 0.277E+02   -.101E-02 -.112E-12 -.153E-01
   0.186E+01 0.346E+02 0.547E+03   -.189E+01 -.363E+02 -.547E+03   -.390E-01 0.168E+01 0.553E-01   -.105E-02 -.137E-02 0.403E-01
   -.176E+01 0.346E+02 0.547E+03   0.178E+01 -.363E+02 -.547E+03   0.401E-01 0.168E+01 0.546E-01   -.999E-03 -.806E-03 0.410E-01
   0.352E+00 -.363E+01 0.165E+04   -.355E+00 0.176E+01 -.165E+04   -.492E-01 0.183E+01 -.548E+00   0.157E-02 -.193E-02 0.568E-02
   -.329E+00 -.363E+01 0.165E+04   0.334E+00 0.176E+01 -.165E+04   0.492E-01 0.183E+01 -.548E+00   -.360E-02 -.210E-02 0.514E-02
   0.475E+01 0.334E-12 0.914E+02   -.480E+01 0.143E-13 -.889E+02   0.863E-01 0.000E+00 -.227E+01   0.286E-02 -.432E-14 0.506E-01
   0.160E+00 -.184E-12 0.943E+02   -.164E+00 -.594E-14 -.917E+02   0.635E-02 0.000E+00 -.230E+01   -.139E-02 0.219E-13 0.533E-01
   0.937E+00 -.202E-12 0.118E+04   -.924E+00 0.241E-13 -.118E+04   -.131E-01 0.000E+00 0.232E+00   0.204E-02 -.180E-12 0.253E-01
   0.303E-01 -.852E-12 0.118E+04   -.288E-01 0.151E-13 -.118E+04   -.120E-03 0.000E+00 0.271E+00   -.144E-02 -.153E-12 0.228E-01
   0.186E+01 -.346E+02 0.547E+03   -.189E+01 0.363E+02 -.547E+03   -.390E-01 -.168E+01 0.553E-01   -.105E-02 0.137E-02 0.403E-01
   -.176E+01 -.346E+02 0.547E+03   0.178E+01 0.363E+02 -.547E+03   0.401E-01 -.168E+01 0.546E-01   -.999E-03 0.806E-03 0.410E-01
   0.352E+00 0.363E+01 0.165E+04   -.355E+00 -.176E+01 -.165E+04   -.492E-01 -.183E+01 -.548E+00   0.157E-02 0.193E-02 0.568E-02
   -.329E+00 0.363E+01 0.165E+04   0.334E+00 -.176E+01 -.165E+04   0.492E-01 -.183E+01 -.548E+00   -.360E-02 0.210E-02 0.514E-02
   0.159E+02 -.712E-12 -.118E+04   -.150E+02 -.669E-13 0.118E+04   -.955E+00 0.000E+00 -.147E+01   -.742E-02 -.101E-14 0.348E-01
   0.258E+00 -.387E-12 -.117E+04   -.293E+00 -.177E-11 0.118E+04   0.277E-01 0.000E+00 -.517E+00   0.340E-02 -.198E-12 0.337E-01
   0.697E+01 -.106E-11 -.998E+02   -.796E+01 -.360E-14 0.981E+02   0.101E+01 0.000E+00 0.160E+01   -.312E-02 -.346E-13 0.503E-01
   0.141E+00 0.707E-12 -.975E+02   -.135E+00 0.344E-13 0.958E+02   -.478E-02 0.000E+00 0.164E+01   -.340E-03 0.256E-13 0.461E-01
   0.260E+01 -.238E+01 -.167E+04   -.286E+01 0.633E+00 0.167E+04   0.234E+00 0.175E+01 -.486E+01   -.436E-03 -.598E-02 0.109E-01
   -.233E+01 -.245E+01 -.167E+04   0.255E+01 0.707E+00 0.167E+04   -.211E+00 0.176E+01 -.487E+01   0.829E-02 -.701E-02 0.127E-01
   0.185E+01 0.328E+02 -.546E+03   -.172E+01 -.344E+02 0.546E+03   -.140E+00 0.161E+01 0.329E+00   -.144E-02 0.106E-01 0.437E-01
   -.167E+01 0.328E+02 -.546E+03   0.154E+01 -.345E+02 0.545E+03   0.142E+00 0.161E+01 0.381E+00   0.237E-02 0.102E-01 0.465E-01
   0.189E+02 0.957E-12 -.201E+04   -.188E+02 -.426E-13 0.204E+04   -.690E-01 0.000E+00 -.281E+02   0.317E-02 -.170E-13 -.586E-02
   -.429E-01 -.202E-12 -.202E+04   0.584E-01 -.208E-11 0.205E+04   -.148E-01 0.000E+00 -.280E+02   0.423E-02 -.173E-12 -.167E-01
   0.261E+01 0.316E-12 -.100E+04   -.260E+01 0.674E-13 0.997E+03   -.290E-01 0.000E+00 0.314E+01   0.203E-02 0.223E-13 0.499E-01
   -.346E-01 0.128E-11 -.999E+03   0.599E-01 -.191E-10 0.996E+03   -.177E-01 0.000E+00 0.258E+01   0.231E-02 0.171E-12 0.427E-01
   0.260E+01 0.238E+01 -.167E+04   -.286E+01 -.633E+00 0.167E+04   0.234E+00 -.175E+01 -.486E+01   -.436E-03 0.598E-02 0.109E-01
   -.233E+01 0.245E+01 -.167E+04   0.255E+01 -.707E+00 0.167E+04   -.211E+00 -.176E+01 -.487E+01   0.829E-02 0.701E-02 0.127E-01
   0.185E+01 -.328E+02 -.546E+03   -.172E+01 0.344E+02 0.546E+03   -.140E+00 -.161E+01 0.329E+00   -.144E-02 -.106E-01 0.437E-01
   -.167E+01 -.328E+02 -.546E+03   0.154E+01 0.345E+02 0.545E+03   0.142E+00 -.161E+01 0.381E+00   0.237E-02 -.102E-01 0.465E-01
   -.288E+01 0.714E-12 0.818E+03   0.296E+01 -.928E-13 -.817E+03   -.185E-01 0.000E+00 -.670E+00   -.180E-02 0.813E-12 0.661E-01
   0.274E+01 -.739E-12 0.817E+03   -.282E+01 -.117E-12 -.817E+03   0.187E-01 0.000E+00 -.671E+00   0.480E-02 0.472E-12 0.651E-01
   -.561E+00 0.560E-13 0.242E+04   0.534E+00 -.898E-13 -.242E+04   -.757E-02 0.000E+00 0.146E+01   -.255E-02 -.906E-12 0.730E-02
   0.526E+00 0.143E-12 0.242E+04   -.502E+00 -.578E-13 -.242E+04   0.760E-02 0.000E+00 0.146E+01   0.505E-02 -.359E-12 0.806E-02
   -.724E+00 -.113E-11 0.257E+04   0.734E+00 0.339E-14 -.256E+04   -.168E-01 0.000E+00 -.262E+01   -.540E-02 0.783E-12 0.732E-02
   -.236E-01 -.582E-12 0.257E+04   0.217E-01 0.708E-13 -.256E+04   -.140E-04 0.000E+00 -.241E+01   0.189E-02 0.716E-12 0.750E-02
   -.328E+01 0.624E-12 0.817E+03   0.330E+01 0.232E-13 -.817E+03   0.991E-02 0.000E+00 0.728E-01   -.108E-02 -.551E-12 0.610E-01
   -.784E-01 0.932E-12 0.813E+03   0.776E-01 -.160E-13 -.813E+03   0.171E-02 0.000E+00 0.184E+00   0.192E-02 -.630E-12 0.623E-01
   -.122E+03 0.287E-11 -.247E+04   0.120E+03 -.601E-12 0.247E+04   0.210E+01 0.000E+00 -.169E+00   -.396E-02 -.429E-13 0.123E-01
   0.121E+03 0.909E-13 -.247E+04   -.119E+03 -.103E-12 0.247E+04   -.210E+01 0.000E+00 -.173E+00   -.234E-03 0.119E-12 0.136E-01
   -.827E+01 0.854E-13 -.836E+03   0.872E+01 0.873E-13 0.836E+03   -.449E+00 0.000E+00 0.613E-01   0.197E-03 -.465E-12 0.683E-01
   0.811E+01 0.824E-13 -.837E+03   -.856E+01 -.855E-13 0.837E+03   0.440E+00 0.000E+00 0.603E-01   -.233E-02 -.187E-12 0.632E-01
[...]
   -.706E+01 0.264E-13 -.996E+02   0.806E+01 0.714E-13 0.980E+02   -.101E+01 0.000E+00 0.157E+01   0.187E-02 -.184E-12 0.531E-01
   -.166E+00 0.145E-11 -.102E+03   0.182E+00 0.285E-13 0.990E+02   -.147E-01 0.000E+00 0.290E+01   0.411E-03 -.429E-12 0.561E-01
   -.158E+01 0.438E+02 -.164E+04   0.752E+00 -.460E+02 0.164E+04   0.837E+00 0.222E+01 -.231E+01   -.348E-02 0.291E-02 0.160E-01
   0.132E+01 0.440E+02 -.164E+04   -.475E+00 -.462E+02 0.164E+04   -.829E+00 0.223E+01 -.236E+01   -.315E-02 0.916E-03 0.135E-01
   -.602E+01 0.309E+02 -.562E+03   0.608E+01 -.327E+02 0.562E+03   -.699E-01 0.171E+01 -.484E+00   0.302E-02 0.215E-03 0.502E-01
   0.585E+01 0.310E+02 -.562E+03   -.591E+01 -.327E+02 0.563E+03   0.482E-01 0.171E+01 -.522E+00   -.413E-02 0.182E-02 0.469E-01
   -.190E+02 0.149E-11 -.201E+04   0.190E+02 -.206E-11 0.204E+04   0.189E-01 0.000E+00 -.282E+02   -.585E-02 -.240E-12 -.868E-02
   -.267E+01 -.170E-11 -.100E+04   0.271E+01 0.271E-12 0.996E+03   -.234E-01 0.000E+00 0.314E+01   -.202E-02 0.631E-13 0.583E-01
   -.165E+00 0.134E-11 -.103E+04   0.166E+00 0.606E-13 0.104E+04   0.113E-02 0.000E+00 -.816E+01   -.153E-02 -.168E-12 0.499E-01
   -.158E+01 -.438E+02 -.164E+04   0.752E+00 0.460E+02 0.164E+04   0.837E+00 -.222E+01 -.231E+01   -.348E-02 -.291E-02 0.160E-01
   0.132E+01 -.440E+02 -.164E+04   -.475E+00 0.462E+02 0.164E+04   -.829E+00 -.223E+01 -.236E+01   -.315E-02 -.916E-03 0.135E-01
   -.602E+01 -.309E+02 -.562E+03   0.608E+01 0.327E+02 0.562E+03   -.699E-01 -.171E+01 -.484E+00   0.302E-02 -.215E-03 0.502E-01
   0.585E+01 -.310E+02 -.562E+03   -.591E+01 0.327E+02 0.563E+03   0.482E-01 -.171E+01 -.522E+00   -.413E-02 -.182E-02 0.469E-01
   0.184E+00 -.193E-12 -.201E+04   -.249E+00 0.240E-13 0.205E+04   0.699E-01 0.000E+00 -.308E+02   -.595E-03 0.128E-12 -.794E-02
   0.272E-02 0.615E-10 0.455E+02   0.356E-13 0.524E-13 0.318E-11   -.550E-01 -.666E-15 -.484E+02   0.197E-02 -.126E-12 0.304E+01

 POSITION                                       TOTAL-FORCE (eV/Angst)
      1.60107      3.23512      4.85268         0.004361      0.000000     -0.296163
      4.80320      3.23512      4.85268        -0.004835      0.000000     -0.295930
      1.60107      0.00000      1.61756        -0.024300      0.000000     -0.937779
      4.80320      0.00000      1.61756         0.025881      0.000000     -0.937961
      0.00000      3.23512      1.61756         0.012713      0.000000      1.609260
      3.20213      3.23512      1.61756         0.000464      0.000000      1.642636
      0.00000      0.00000      4.85268        -0.034580      0.000000     -0.244320
      3.20213      0.00000      4.85268         0.000297      0.000000     -0.383343
      1.60516      3.23512     11.35825        -0.005381      0.000000      0.006128
      4.79971      3.23512     11.35800         0.002329      0.000000      0.011776
      1.59765      0.00000      8.07405        -0.011363      0.000000     -0.000096
      4.80744      0.00000      8.07365        -0.002054      0.000000     -0.004451
     -0.00394      3.23512      8.09650         0.011336      0.000000      0.033096
      3.20288      3.23512      8.09406        -0.008126      0.000000      0.008198
     -0.00732      0.00000     11.26598        -0.005748      0.000000      0.005031
      3.20205      0.00000     11.26147        -0.002212      0.000000     -0.004841
      0.00000      3.23512      3.61324        -0.014172      0.000000     -0.165265
      3.20213      3.23512      3.61324         0.000902      0.000000     -0.188431
      0.00000      0.00000      0.37812        -0.003411      0.000000      0.793023
      3.20213      0.00000      0.37812         0.000353      0.000000      0.795761
      1.60107      5.23080      4.85268        -0.063279     -0.023039     -0.029713
      4.80320      5.23080      4.85268         0.064365     -0.023138     -0.030256
      1.60107      1.99568      1.61756        -0.049491     -0.046929     -0.687240
      4.80320      1.99568      1.61756         0.050548     -0.046884     -0.687212
      0.00000      3.23512      6.09212         0.038528      0.000000      0.334345
      3.20213      3.23512      6.09212         0.002001      0.000000      0.367327
      0.00000      0.00000      2.85700         0.002749      0.000000      0.202359
      3.20213      0.00000      2.85700         0.000451      0.000000      0.261030
      1.60107      1.23944      4.85268        -0.063279      0.023039     -0.029713
      4.80320      1.23944      4.85268         0.064365      0.023138     -0.030256
      1.60107      4.47456      1.61756        -0.049491      0.046929     -0.687240
      4.80320      4.47456      1.61756         0.050548      0.046884     -0.687212
      0.04681      3.23512     10.06143        -0.015222      0.000000      0.005462
      3.20320      3.23512     10.08708        -0.004044      0.000000     -0.017676
     12.79783      0.00000      6.84623         0.016269      0.000000     -0.013613
      3.20238      0.00000      6.83668         0.001033      0.000000      0.005913
      1.60649      5.24304     11.40731        -0.018158     -0.002713      0.008381
      4.79784      5.24282     11.40725         0.014344      0.009106      0.003824
      1.59949      1.99419      8.07865        -0.005574      0.008402      0.001210
      4.80591      1.99419      8.07748         0.016456      0.006618      0.007090
     12.79862      3.23512     12.53133         0.015846      0.000000      0.011814
      3.20208      3.23512     12.53555         0.005405      0.000000     -0.030569
     12.80813      0.00000      9.31083        -0.010682      0.000000      0.016601
      3.20213      0.00000      9.30378         0.010368      0.000000     -0.010464
      1.60649      1.22720     11.40731        -0.018158      0.002713      0.008381
      4.79784      1.22742     11.40725         0.014344     -0.009106      0.003824
      1.59949      4.47605      8.07865        -0.005574     -0.008402      0.001210
      4.80591      4.47605      8.07748         0.016456     -0.006618      0.007090
      8.00533      3.23512      4.85268         0.055907      0.000000     -0.301402
     11.20747      3.23512      4.85268        -0.056381      0.000000     -0.302122
      8.00533      0.00000      1.61756        -0.036655      0.000000     -0.931994
     11.20747      0.00000      1.61756         0.037533      0.000000     -0.931831
      6.40427      3.23512      1.61756        -0.011774      0.000000      1.608990
      9.60640      3.23512      1.61756         0.000488      0.000000      1.479116
      6.40427      0.00000      4.85268         0.036077      0.000000     -0.253737
      9.60640      0.00000      4.85268         0.003350      0.000000     -0.228587
      7.99125      3.23512     11.34066         0.014073      0.000000      0.027720
     11.22210      3.23512     11.34255        -0.026816      0.000000      0.026802
      8.02458      0.00000      8.10141         0.006492      0.000000      0.011181
     11.18913      0.00000      8.10210        -0.010042      0.000000      0.009584
[...]
      9.60683      3.23512     10.13040        -0.006867      0.000000      0.048173
      6.41539      0.00000      6.84537        -0.001317      0.000000     -0.002802
      9.60697      0.00000      6.84849         0.002842      0.000000      0.001532
      8.00008      5.22596     11.39732         0.003726      0.010540      0.000433
     11.21081      5.22655     11.39991         0.010887      0.005257      0.000703
      8.00784      1.99343      8.11297        -0.002313     -0.004860      0.003507
     11.20589      1.99356      8.11381        -0.013157     -0.010430     -0.006315
      6.41484      3.23512     12.52954        -0.026241      0.000000      0.016713
      6.40484      0.00000      9.30967         0.013899      0.000000      0.019035
      9.60671      0.00000      9.37303         0.001041      0.000000      0.038003
      8.00008      1.24428     11.39732         0.003726     -0.010540      0.000433
     11.21081      1.24370     11.39991         0.010887     -0.005257      0.000703
      8.00784      4.47681      8.11297        -0.002313      0.004860      0.003507
     11.20589      4.47669      8.11381        -0.013157      0.010430     -0.006315
      9.60166      0.00000     13.29194         0.004527      0.000000      0.009117
    total drift:                               -0.050279      0.000000      0.144654

  FREE ENERGIE OF THE ION-ELECTRON SYSTEM (eV)
  free  energy   TOTEN  =      -613.88775091 eV

  energy  without entropy=     -613.81501572  energy(sigma->0) =     -613.85138331

 d Force = 0.9111922E-03[ 0.526E-03, 0.130E-02]  d Energy = 0.8515753E-03 0.596E-04
 d Force = 0.3901981E+02[ 0.390E+02, 0.390E+02]  d Ewald  = 0.3901982E+02-0.222E-05

 stress matrix after NEB project (eV)
    -18.47658      0.00000      0.03064
      0.00000     -9.63965      0.00000
      0.03064      0.00000     -4.77400
  FORCES: max atom, RMS     0.048660    0.013592
  FORCE total and by dimension    0.133173    0.048173
  Stress total and by dimension   21.379893   18.476580
 Conjugate gradient step on ions:
 trial-energy change:   -0.000852  1 .order   -0.000911   -0.001296   -0.000526
  (g-gl).g = 0.229E-02      g.g   = 0.224E-02  gl.gl    = 0.280E-02
 g(Force)  = 0.224E-02   g(Stress)= 0.000E+00 ortho     = 0.138E-03
 gamma     =   0.81793
 trial     =   0.55065
 opt step  =   0.92726  (harmonic =   0.92726) maximal distance =0.00560350
 next E    =  -613.887991   (d E  =  -0.00109)

 reached required accuracy - stopping structural energy minimisation