 vasp.5.4.4.18Apr17-6-g9f103f2a35 (build Feb 25 2019 10:51:38) complex

 executed on             LinuxIFC date 2023.03.14  10:59:58

 INCAR:
 POTCAR:    PAW_PBE Ir 06Sep2000
 POTCAR:    PAW_PBE O 08Apr2002
 POTCAR:    PAW_PBE Ir 06Sep2000
 POTCAR:    PAW_PBE O 08Apr2002
 POTCAR:    PAW_PBE Ir 06Sep2000
   VRHFIN =Ir: s1d8

   TITEL  = PAW_PBE Ir 06Sep2000
   POMASS =  192.220; ZVAL   =    9.000    mass and valenz
   ENMAX  =  210.864; ENMIN  =  158.148 eV

 POTCAR:    PAW_PBE O 08Apr2002
   VRHFIN =O: s2p4

   TITEL  = PAW_PBE O 08Apr2002
   POMASS =   16.000; ZVAL   =    6.000    mass and valenz
   ENMAX  =  400.000; ENMIN  =  300.000 eV

 POTCAR:    PAW_PBE Ir 06Sep2000
   VRHFIN =Ir: s1d8

   TITEL  = PAW_PBE Ir 06Sep2000
   POMASS =  192.220; ZVAL   =    9.000    mass and valenz
   ENMAX  =  210.864; ENMIN  =  158.148 eV

 POTCAR:    PAW_PBE O 08Apr2002
   VRHFIN =O: s2p4

   TITEL  = PAW_PBE O 08Apr2002
   POMASS =   16.000; ZVAL   =    6.000    mass and valenz
   ENMAX  =  400.000; ENMIN  =  300.000 eV

 Optimization of the real space projectors (new method)

 maximal supplied QI-value         = 14.36
 optimisation between [QCUT,QGAM] = [ 11.35, 22.84] = [ 36.05,146.02] Ry
 Optimized for a Real-space Cutoff    1.52 Angstroem

   l    n(q)    QCUT    max X(q) W(low)/X(q) W(high)/X(q)  e(spline)
   2      9    11.346   134.116    0.47E-03    0.13E-03    0.92E-06
   2      9    11.346   130.192    0.47E-03    0.13E-03    0.92E-06
   0     10    11.346    60.310    0.74E-04    0.13E-03    0.69E-06
   0     10    11.346    39.218    0.68E-04    0.12E-03    0.65E-06
   1     10    11.346    18.439    0.15E-03    0.34E-04    0.20E-06
   1     10    11.346    12.760    0.12E-03    0.31E-04    0.16E-06
 Optimization of the real space projectors (new method)

[...]

   l    n(q)    QCUT    max X(q) W(low)/X(q) W(high)/X(q)  e(spline)
   2      9    11.346   134.116    0.47E-03    0.13E-03    0.92E-06
   2      9    11.346   130.192    0.47E-03    0.13E-03    0.92E-06
   0     10    11.346    60.310    0.74E-04    0.13E-03    0.69E-06
   0     10    11.346    39.218    0.68E-04    0.12E-03    0.65E-06
   1     10    11.346    18.439    0.15E-03    0.34E-04    0.20E-06
   1     10    11.346    12.760    0.12E-03    0.31E-04    0.16E-06
 Optimization of the real space projectors (new method)

 maximal supplied QI-value         = 24.76
 optimisation between [QCUT,QGAM] = [ 11.39, 22.77] = [ 36.31,145.25] Ry
 Optimized for a Real-space Cutoff    1.00 Angstroem

   l    n(q)    QCUT    max X(q) W(low)/X(q) W(high)/X(q)  e(spline)
   0      7    11.387    20.381    0.39E-03    0.13E-02    0.15E-06
   0      7    11.387    15.268    0.42E-03    0.14E-02    0.17E-06
   1      6    11.387     5.964    0.41E-03    0.11E-02    0.17E-06
   1      6    11.387     5.382    0.39E-03    0.87E-03    0.15E-06

  PAW_PBE Ir 06Sep2000                  :
  PAW_PBE O 08Apr2002                   :
  PAW_PBE Ir 06Sep2000                  :
  PAW_PBE O 08Apr2002                   :

 POSCAR: Ir  O Ir  O
  positions in cartesian coordinates
 exchange correlation table for  LEXCH =        9
   RHO(1)=    0.500       N(1)  =     2000
   RHO(2)=  100.500       N(2)  =     4000

 VTST: version 3.2, (02/03/18)

 CHAIN: initializing optimizer

 OPT: Using VASP Conjugate-Gradient optimizer
 CHAIN: Read ICHAIN            0

 POSCAR: Ir  O Ir  O
  positions in cartesian coordinates

 ion  position               nearest neighbor table
   1  0.125  0.500  0.188-  21 2.00  29 2.00  17 2.02  25 2.02  26 2.02  18 2.02   2 3.20  50 3.20

   2  0.375  0.500  0.188-  22 2.00  30 2.00  26 2.02  18 2.02  65 2.02  73 2.02   1 3.20  49 3.20

[...]

  63  0.500  0.000  0.435-  90 1.96  85 2.02  92 2.02  46 2.02  38 2.02  16 3.20  64 3.20
  64  0.750  0.000  0.435-  91 1.96  86 2.02  93 2.02  92 2.02  85 2.02  15 3.20  63 3.20
  65  0.500  0.500  0.140-  53 2.00  49 2.02   2 2.02
  66  0.750  0.500  0.140-  54 2.00  50 2.02  49 2.02
  67  0.500  0.000  0.015-   4 2.02  51 2.02
  68  0.750  0.000  0.015-  51 2.02  52 2.02
  69  0.625  0.808  0.188-  49 2.00  55 2.02  56 2.02
  70  0.875  0.808  0.188-  50 2.00   7 2.02  56 2.02
  71  0.625  0.308  0.062-  51 2.00  53 2.02  54 2.02
  72  0.875  0.308  0.062-  52 2.00   5 2.02  54 2.02
  73  0.500  0.500  0.235-  61 2.01  49 2.02   2 2.02
  74  0.750  0.500  0.235-  62 2.01  50 2.02  49 2.02
  75  0.500  0.000  0.110-  55 2.00  51 2.02   4 2.02
  76  0.750  0.000  0.110-  56 2.00  52 2.02  51 2.02
  77  0.625  0.192  0.188-  49 2.00  55 2.02  56 2.02
  78  0.875  0.192  0.188-  50 2.00   7 2.02  56 2.02
  79  0.625  0.692  0.062-  51 2.00  53 2.02  54 2.02
  80  0.875  0.692  0.062-  52 2.00   5 2.02  54 2.02
  81  0.500  0.500  0.390-  61 1.99  10 2.04  57 2.04
  82  0.750  0.500  0.390-  62 1.99  58 2.04  57 2.04
  83  0.500  0.000  0.264-  55 1.98  59 2.03  12 2.03
  84  0.750  0.000  0.264-  56 1.98  59 2.03  60 2.03
  85  0.625  0.810  0.441-  57 2.01  64 2.02  63 2.02
  86  0.875  0.810  0.441-  58 2.01  64 2.02  15 2.02
  87  0.625  0.308  0.313-  59 2.00  61 2.02  62 2.03
  88  0.875  0.308  0.313-  60 2.00  13 2.02  62 2.03
  89  0.500  0.500  0.485-  10 1.99  57 2.00
  90  0.500  0.000  0.360-  63 1.96  59 2.02  12 2.02
  91  0.750  0.000  0.360-  64 1.96  59 2.02  60 2.02
  92  0.625  0.190  0.441-  57 2.01  64 2.02  63 2.02
  93  0.875  0.190  0.441-  58 2.01  64 2.02  15 2.02
  94  0.625  0.692  0.313-  59 2.00  61 2.02  62 2.03
  95  0.875  0.692  0.313-  60 2.00  13 2.02  62 2.03

  LATTYP: Found a simple orthorhombic cell.
 ALAT       =     6.4702430000
 B/A-ratio  =     1.9796060210
 C/A-ratio  =     4.0000000000

  Lattice vectors:

 A1 = (   0.0000000000,  -6.4702430000,   0.0000000000)
 A2 = ( -12.8085320000,   0.0000000000,   0.0000000000)
 A3 = (   0.0000000000,   0.0000000000, -25.8809720000)

Analysis of symmetry for initial positions (statically):
 Subroutine PRICEL returns:
 Original cell was already a primitive cell.

 Routine SETGRP: Setting up the symmetry group for a
 simple orthorhombic supercell.

 Subroutine GETGRP returns: Found  2 space group operations
 (whereof  2 operations were pure point group operations)
 out of a pool of  8 trial point group operations.

The static configuration has the point symmetry C_1h.

Analysis of symmetry for dynamics (positions and initial velocities):
 Subroutine PRICEL returns:
 Original cell was already a primitive cell.

[...]

The dynamic configuration has the point symmetry C_1h.

Analysis of constrained symmetry for selective dynamics:
 Subroutine PRICEL returns:
 Original cell was already a primitive cell.

[...]

The constrained configuration has the point symmetry C_1h.

Analysis of structural, dynamic, and magnetic symmetry:
 Subroutine PRICEL returns:
 Original cell was already a primitive cell.

 Routine SETGRP: Setting up the symmetry group for a
 simple orthorhombic supercell.

 Subroutine GETGRP returns: Found  2 space group operations
 (whereof  2 operations were pure point group operations)
 out of a pool of  8 trial point group operations.

The magnetic configuration has the point symmetry C_1h.

 Subroutine INISYM returns: Found  2 space group operations
 (whereof  2 operations are pure point group operations),
 and found     1 'primitive' translations

 KPOINTS: Automatic mesh

Automatic generation of k-mesh.
Space group operators:
 irot       det(A)        alpha          n_x          n_y          n_z        tau_x        tau_y        tau_z
    1     1.000000     0.000001     1.000000     0.000000     0.000000     0.000000     0.000000     0.000000
    2    -1.000000   180.000000     0.000000     1.000000     0.000000     0.000000     0.000000     0.000000

 Subroutine IBZKPT returns following result:

 Found      4 irreducible k-points:

 Following reciprocal coordinates:
            Coordinates               Weight
  0.000000  0.000000  0.000000      1.000000
  0.333333  0.000000  0.000000      2.000000
  0.000000  0.333333  0.000000      2.000000
  0.333333  0.333333  0.000000      4.000000

 Following cartesian coordinates:
            Coordinates               Weight
  0.000000  0.000000  0.000000      1.000000
  0.026024  0.000000  0.000000      2.000000
  0.000000  0.051518  0.000000      2.000000
  0.026024  0.051518  0.000000      4.000000

 SYSTEM =  unknown system
 POSCAR =  Ir  O Ir  O

 Startparameter for this run:
   NWRITE =      2    write-flag & timer
   PREC   = normal    normal or accurate (medium, high low for compatibility)
   ISTART =      0    job   : 0-new  1-cont  2-samecut
   ICHARG =      2    charge: 1-file 2-atom 10-const
   ISPIN  =      2    spin polarized calculation?
   LNONCOLLINEAR =      F non collinear calculations
   LSORBIT =      F    spin-orbit coupling
   INIWAV =      1    electr: 0-lowe 1-rand  2-diag
   LASPH  =      F    aspherical Exc in radial PAW
   METAGGA=      F    non-selfconsistent MetaGGA calc.

 Electronic Relaxation 1
   ENCUT  =  500.0 eV  36.75 Ry    6.06 a.u.  23.35 11.80 47.19*2*pi/ulx,y,z
   ENINI  =  500.0     initial cutoff
   ENAUG  =  605.4 eV  augmentation charge cutoff
   NELM   =     60;   NELMIN=  4; NELMDL= -5     # of ELM steps
   EDIFF  = 0.1E-04   stopping-criterion for ELM
   LREAL  =      T    real-space projection
   NLSPLINE    = F    spline interpolate recip. space projectors
   LCOMPAT=      F    compatible to vasp.4.4
   GGA_COMPAT  = T    GGA compatible to vasp.4.4-vasp.4.6
   LMAXPAW     = -100 max onsite density
   LMAXMIX     =    2 max onsite mixed and CHGCAR
   VOSKOWN=      0    Vosko Wilk Nusair interpolation
   ROPT   =   -0.00050  -0.00050  -0.00050  -0.00050
 Ionic relaxation
   EDIFFG = -.5E-01   stopping-criterion for IOM
   NSW    =    500    number of steps for IOM
   NBLOCK =      1;   KBLOCK =    500    inner block; outer block
   IBRION =      2    ionic relax: 0-MD 1-quasi-New 2-CG
   NFREE  =      1    steps in history (QN), initial steepest desc. (CG)
   ISIF   =      2    stress and relaxation
   IWAVPR =     11    prediction:  0-non 1-charg 2-wave 3-comb
   ISYM   =      2    0-nonsym 1-usesym 2-fastsym
   LCORR  =      T    Harris-Foulkes like correction to forces

   POTIM  = 0.5000    time-step for ionic-motion
   TEIN   =    0.0    initial temperature
   TEBEG  =    0.0;   TEEND  =   0.0 temperature during run
   SMASS  =  -3.00    Nose mass-parameter (am)
   estimated Nose-frequenzy (Omega)   =  0.10E-29 period in steps =****** mass=  -0.375E-26a.u.
   SCALEE = 1.0000    scale energy and forces
   NPACO  =    256;   APACO  = 16.0  distance and # of slots for P.C.
   PSTRESS=    0.0 pullay stress

  Mass of Ions in am
   POMASS = 192.22 16.00192.22 16.00
  Ionic Valenz
   ZVAL   =   9.00  6.00  9.00  6.00
  Atomic Wigner-Seitz radii
  virtual crystal weights
   VCA    =   1.00  1.00  1.00  1.00
   NELECT =     666.0000    total number of electrons
   NUPDOWN=      -1.0000    fix difference up-down

 DOS related values:
   EMIN   =  10.00;   EMAX   =-10.00  energy-range for DOS
   EFERMI =   0.00
   ISMEAR =     0;   SIGMA  =   0.05  broadening in eV -4-tet -1-fermi 0-gaus

 Electronic relaxation 2 (details)
   IALGO  =     68    algorithm
[...]
   0.346E-02 0.119E-11 0.256E+04   -.493E-02 0.756E-13 -.256E+04   0.900E-05 0.000E+00 -.257E+01   0.149E-02 -.669E-13 0.380E-01
   0.414E+01 0.318E-12 0.797E+03   -.418E+01 0.426E-13 -.798E+03   -.105E-01 0.000E+00 0.714E-01   0.456E-01 0.287E-12 0.109E+00
   0.136E-01 -.720E-12 0.801E+03   -.174E-01 -.855E-14 -.801E+03   -.150E-03 0.000E+00 0.639E-01   0.368E-02 0.342E-12 0.117E+00
   0.261E+02 0.212E-12 -.243E+04   -.259E+02 0.244E-13 0.243E+04   -.192E+00 0.000E+00 -.186E+01   0.446E-01 0.289E-13 0.129E-01
   -.260E+02 0.923E-12 -.243E+04   0.259E+02 0.265E-13 0.243E+04   0.188E+00 0.000E+00 -.185E+01   -.418E-01 0.404E-13 0.136E-01
   0.990E+01 0.361E-12 -.854E+03   -.994E+01 -.213E-13 0.854E+03   0.195E-02 0.000E+00 0.475E+00   0.386E-01 0.948E-13 0.111E+00
   -.993E+01 0.116E-11 -.854E+03   0.996E+01 0.233E-14 0.854E+03   0.249E-02 0.000E+00 0.479E+00   -.348E-01 -.322E-13 0.109E+00
   0.190E+02 -.977E-12 -.859E+03   -.189E+02 0.142E-13 0.860E+03   -.109E+00 0.000E+00 -.191E+00   0.648E-01 -.262E-13 0.997E-01
   0.380E-01 -.109E-11 -.853E+03   -.412E-01 0.178E-13 0.854E+03   0.577E-04 0.000E+00 -.319E+00   0.412E-02 -.691E-13 0.116E+00
   0.398E+02 -.165E-11 -.253E+04   -.398E+02 0.213E-13 0.253E+04   -.916E-01 0.000E+00 0.328E+01   0.625E-01 -.719E-13 0.889E-02
   -.738E-01 -.376E-12 -.252E+04   0.739E-01 -.296E-13 0.251E+04   0.237E-02 0.000E+00 0.323E+01   0.785E-03 0.249E-13 0.170E-02
   0.165E+01 0.299E-12 0.999E+03   -.170E+01 -.113E-13 -.997E+03   0.968E-02 0.000E+00 -.168E+01   0.310E-01 -.238E-12 0.712E-01
   0.427E-02 0.116E-11 0.100E+04   -.661E-02 -.733E-14 -.999E+03   0.248E-03 0.000E+00 -.171E+01   0.218E-02 -.123E-12 0.811E-01
   0.416E+00 -.529E-13 0.202E+04   -.426E+00 0.694E-14 -.205E+04   0.235E-02 0.000E+00 0.277E+02   0.174E-01 -.639E-13 -.243E-01
   0.149E-02 -.170E-11 0.202E+04   -.195E-02 0.932E-14 -.205E+04   -.111E-03 0.000E+00 0.277E+02   0.541E-03 0.398E-13 -.144E-01
   0.193E+01 0.349E+02 0.533E+03   -.195E+01 -.366E+02 -.533E+03   -.501E-01 0.169E+01 0.574E-01   0.203E-01 -.976E-02 0.758E-01
   -.190E+01 0.349E+02 0.533E+03   0.192E+01 -.366E+02 -.533E+03   0.503E-01 0.169E+01 0.572E-01   -.161E-01 -.978E-02 0.766E-01
   0.448E+00 -.363E+01 0.164E+04   -.466E+00 0.177E+01 -.164E+04   -.499E-01 0.182E+01 -.541E+00   0.139E-01 -.448E-02 0.216E-01
   -.444E+00 -.364E+01 0.164E+04   0.461E+00 0.177E+01 -.164E+04   0.499E-01 0.182E+01 -.541E+00   -.124E-01 -.439E-02 0.227E-01
   0.589E+01 0.360E-12 0.732E+02   -.600E+01 0.711E-14 -.705E+02   0.107E+00 0.000E+00 -.233E+01   0.376E-01 -.202E-12 0.744E-01
   -.612E-02 0.121E-11 0.778E+02   0.329E-02 -.400E-14 -.752E+02   0.525E-04 0.000E+00 -.234E+01   0.303E-02 -.177E-12 0.750E-01
   0.112E+01 0.148E-11 0.117E+04   -.114E+01 0.323E-13 -.117E+04   -.926E-02 0.000E+00 0.257E+00   0.263E-01 0.218E-12 0.490E-01
   0.458E-02 -.698E-12 0.117E+04   -.615E-02 0.139E-13 -.117E+04   0.807E-04 0.000E+00 0.287E+00   0.153E-02 0.124E-12 0.537E-01
   0.193E+01 -.349E+02 0.533E+03   -.195E+01 0.366E+02 -.533E+03   -.501E-01 -.169E+01 0.574E-01   0.203E-01 0.976E-02 0.758E-01
   -.190E+01 -.349E+02 0.533E+03   0.192E+01 0.366E+02 -.533E+03   0.503E-01 -.169E+01 0.572E-01   -.161E-01 0.978E-02 0.766E-01
   0.448E+00 0.363E+01 0.164E+04   -.466E+00 -.177E+01 -.164E+04   -.499E-01 -.182E+01 -.541E+00   0.139E-01 0.448E-02 0.216E-01
   -.444E+00 0.364E+01 0.164E+04   0.461E+00 -.177E+01 -.164E+04   0.499E-01 -.182E+01 -.541E+00   -.124E-01 0.439E-02 0.227E-01
   0.320E+02 0.111E-11 -.121E+04   -.311E+02 0.178E-13 0.121E+04   -.899E+00 0.000E+00 -.128E+01   0.492E-01 0.998E-13 0.560E-01
   0.188E-01 0.137E-11 -.119E+04   -.120E-01 0.131E-13 0.119E+04   -.634E-02 0.000E+00 -.540E+00   0.883E-03 0.102E-13 0.521E-01
   0.669E+01 0.176E-13 -.119E+03   -.672E+01 0.355E-14 0.117E+03   0.408E-02 0.000E+00 0.184E+01   0.351E-01 0.233E-12 0.829E-01
   0.155E-01 0.571E-12 -.115E+03   -.211E-01 -.235E-13 0.113E+03   0.327E-02 0.000E+00 0.179E+01   0.185E-02 0.165E-12 0.957E-01
   0.161E+02 -.356E+01 -.168E+04   -.164E+02 0.187E+01 0.169E+04   0.283E+00 0.169E+01 -.514E+01   0.293E-01 0.141E-02 0.301E-02
   -.160E+02 -.363E+01 -.168E+04   0.163E+02 0.195E+01 0.169E+04   -.266E+00 0.169E+01 -.515E+01   -.283E-01 -.597E-03 0.189E-02
   0.605E+01 0.330E+02 -.568E+03   -.601E+01 -.346E+02 0.568E+03   -.844E-01 0.161E+01 0.151E+00   0.256E-01 -.283E-02 0.691E-01
   -.602E+01 0.330E+02 -.569E+03   0.597E+01 -.346E+02 0.568E+03   0.836E-01 0.162E+01 0.131E+00   -.212E-01 -.448E-03 0.681E-01
   0.489E+02 0.142E-11 -.202E+04   -.488E+02 -.124E-13 0.205E+04   -.147E+00 0.000E+00 -.277E+02   0.407E-01 0.890E-13 -.102E-01
   0.378E-01 0.545E-12 -.202E+04   -.423E-01 -.272E-14 0.205E+04   -.119E-01 0.000E+00 -.279E+02   0.178E-02 -.696E-13 -.477E-01
   0.153E+02 0.510E-12 -.103E+04   -.152E+02 0.142E-13 0.103E+04   -.128E+00 0.000E+00 0.177E+01   0.524E-01 -.133E-12 0.837E-01
   0.276E-01 0.177E-11 -.102E+04   -.309E-01 -.133E-14 0.102E+04   0.195E-02 0.000E+00 0.234E+01   0.124E-02 0.152E-14 0.800E-01
   0.161E+02 0.356E+01 -.168E+04   -.164E+02 -.187E+01 0.169E+04   0.283E+00 -.169E+01 -.514E+01   0.293E-01 -.141E-02 0.301E-02
   -.160E+02 0.363E+01 -.168E+04   0.163E+02 -.195E+01 0.169E+04   -.266E+00 -.169E+01 -.515E+01   -.283E-01 0.597E-03 0.189E-02
   0.605E+01 -.330E+02 -.568E+03   -.601E+01 0.346E+02 0.568E+03   -.844E-01 -.161E+01 0.151E+00   0.256E-01 0.283E-02 0.691E-01
   -.602E+01 -.330E+02 -.569E+03   0.597E+01 0.346E+02 0.568E+03   0.836E-01 -.162E+01 0.131E+00   -.212E-01 0.448E-03 0.681E-01
   -.365E+01 0.913E-12 0.796E+03   0.375E+01 -.937E-13 -.795E+03   -.367E-01 0.000E+00 -.677E+00   -.352E-01 -.297E-12 0.108E+00
   0.362E+01 -.112E-11 0.796E+03   -.372E+01 -.870E-13 -.795E+03   0.367E-01 0.000E+00 -.677E+00   0.296E-01 -.391E-12 0.107E+00
   -.693E+00 0.535E-12 0.241E+04   0.714E+00 -.883E-13 -.241E+04   0.218E-03 0.000E+00 0.145E+01   -.262E-01 0.447E-13 0.154E-01
   0.687E+00 -.827E-12 0.241E+04   -.706E+00 -.844E-13 -.241E+04   -.206E-03 0.000E+00 0.145E+01   0.239E-01 0.494E-13 0.135E-01
   -.972E+00 0.157E-11 0.256E+04   0.100E+01 0.229E-14 -.256E+04   -.162E-01 0.000E+00 -.260E+01   -.285E-01 -.140E-12 0.279E-01
   -.441E-02 -.116E-11 0.256E+04   0.584E-02 0.723E-13 -.256E+04   0.239E-04 0.000E+00 -.245E+01   -.146E-02 0.920E-14 0.144E-01
   -.413E+01 0.491E-12 0.797E+03   0.418E+01 0.910E-14 -.798E+03   0.977E-02 0.000E+00 0.682E-01   -.459E-01 0.346E-12 0.110E+00
   -.333E-01 0.127E-11 0.793E+03   0.369E-01 -.266E-13 -.793E+03   0.460E-04 0.000E+00 0.561E-01   -.347E-02 0.239E-12 0.103E+00
   -.155E+03 -.572E-12 -.252E+04   0.153E+03 -.169E-13 0.252E+04   0.204E+01 0.000E+00 -.112E-01   -.520E-01 0.492E-12 0.232E-01
   0.154E+03 0.109E-11 -.252E+04   -.152E+03 -.533E-13 0.252E+04   -.204E+01 0.000E+00 -.151E-01   0.485E-01 0.118E-12 0.228E-01
   -.125E+02 -.238E-12 -.869E+03   0.125E+02 0.426E-13 0.869E+03   0.147E-01 0.000E+00 0.479E+00   -.312E-01 -.203E-13 0.904E-01
   0.125E+02 0.278E-12 -.870E+03   -.126E+02 -.284E-13 0.869E+03   -.221E-01 0.000E+00 0.476E+00   0.256E-01 0.116E-12 0.918E-01
[...]
   -.151E-01 -.375E-11 -.128E+04   0.192E-01 -.355E-14 0.128E+04   -.291E-02 0.000E+00 0.925E+00   -.281E-02 0.179E-12 0.492E-01
   -.664E+01 0.738E-12 -.119E+03   0.668E+01 -.266E-14 0.117E+03   -.644E-02 0.000E+00 0.184E+01   -.367E-01 0.724E-13 0.792E-01
   -.732E-01 -.246E-12 -.125E+03   0.828E-01 0.000E+00 0.123E+03   -.731E-02 0.000E+00 0.189E+01   -.101E-02 0.207E-12 0.965E-01
   -.422E+02 0.238E+02 -.171E+04   0.420E+02 -.256E+02 0.172E+04   0.269E+00 0.177E+01 -.502E+01   -.353E-01 0.115E-01 0.198E-01
   0.422E+02 0.239E+02 -.171E+04   -.419E+02 -.257E+02 0.172E+04   -.270E+00 0.179E+01 -.505E+01   0.344E-01 0.135E-01 0.208E-01
   -.109E+02 0.303E+02 -.591E+03   0.112E+02 -.320E+02 0.591E+03   -.207E+00 0.165E+01 -.506E+00   -.222E-01 0.122E-02 0.653E-01
   0.109E+02 0.303E+02 -.591E+03   -.111E+02 -.319E+02 0.592E+03   0.200E+00 0.166E+01 -.533E+00   0.171E-01 -.128E-02 0.666E-01
   -.489E+02 -.738E-12 -.202E+04   0.488E+02 -.112E-13 0.205E+04   0.130E+00 0.000E+00 -.277E+02   -.375E-01 0.897E-13 -.100E-01
   -.153E+02 -.422E-12 -.103E+04   0.152E+02 -.244E-14 0.103E+04   0.122E+00 0.000E+00 0.179E+01   -.536E-01 -.968E-13 0.840E-01
   -.444E-01 0.141E-11 -.105E+04   0.470E-01 0.142E-13 0.104E+04   -.237E-02 0.000E+00 0.127E+01   0.548E-03 -.135E-12 0.777E-01
   -.422E+02 -.238E+02 -.171E+04   0.420E+02 0.256E+02 0.172E+04   0.269E+00 -.177E+01 -.502E+01   -.353E-01 -.115E-01 0.198E-01
   0.422E+02 -.239E+02 -.171E+04   -.419E+02 0.257E+02 0.172E+04   -.270E+00 -.179E+01 -.505E+01   0.344E-01 -.135E-01 0.208E-01
   -.109E+02 -.303E+02 -.591E+03   0.112E+02 0.320E+02 0.591E+03   -.207E+00 -.165E+01 -.506E+00   -.222E-01 -.122E-02 0.653E-01
   0.109E+02 -.303E+02 -.591E+03   -.111E+02 0.319E+02 0.592E+03   0.200E+00 -.166E+01 -.533E+00   0.171E-01 0.128E-02 0.666E-01
   0.670E-02 0.568E-10 0.125E+02   -.149E-11 -.711E-14 -.205E-11   -.426E-01 0.111E-14 -.174E+02   0.315E-03 -.183E-13 0.483E+01

 POSITION                                       TOTAL-FORCE (eV/Angst)
      1.60107      3.23512      4.85268        -0.008605     -0.000000     -0.304903
      4.80320      3.23512      4.85268         0.009183     -0.000000     -0.304992
      1.60107      0.00000      1.61756        -0.012382     -0.000000     -0.934962
      4.80320      0.00000      1.61756         0.013228     -0.000000     -0.935082
      0.00000      3.23512      1.61756         0.012536     -0.000000      1.613358
      3.20213      3.23512      1.61756         0.000404     -0.000000      1.653074
      0.00000      0.00000      4.85268        -0.012876     -0.000000     -0.334231
      3.20213      0.00000      4.85268         0.000179     -0.000000     -0.324625
      1.60680      3.23512     11.36016        -0.003569     -0.000000      0.005111
      4.79769      3.23512     11.36014         0.000347     -0.000000      0.010849
      1.59938      0.00000      8.08075         0.000830     -0.000000     -0.023108
      4.80480      0.00000      8.08062         0.003265     -0.000000     -0.018640
     -0.00259      3.23512      8.09835         0.030801     -0.000000      0.010234
      3.20207      3.23512      8.09627         0.001286     -0.000000      0.006968
     -0.00684      0.00000     11.28266        -0.007664     -0.000000     -0.007231
      3.20201      0.00000     11.26750         0.003610     -0.000000     -0.031425
      0.00000      3.23512      3.61324        -0.014642     -0.000000     -0.156187
      3.20213      3.23512      3.61324         0.000464     -0.000000     -0.190040
      0.00000      0.00000      0.37812         0.010127     -0.000000      0.796629
      3.20213      0.00000      0.37812         0.000337     -0.000000      0.801490
      1.60107      5.23080      4.85268        -0.051868     -0.022971     -0.030822
      4.80320      5.23080      4.85268         0.052532     -0.022894     -0.030928
      1.60107      1.99568      1.61756        -0.054027     -0.049471     -0.688791
      4.80320      1.99568      1.61756         0.054783     -0.049468     -0.688765
      0.00000      3.23512      6.09212         0.042178     -0.000000      0.370099
      3.20213      3.23512      6.09212         0.000620     -0.000000      0.389231
      0.00000      0.00000      2.85700         0.000548     -0.000000      0.219943
      3.20213      0.00000      2.85700         0.000418     -0.000000      0.248150
      1.60107      1.23944      4.85268        -0.051868      0.022971     -0.030822
      4.80320      1.23944      4.85268         0.052532      0.022894     -0.030928
      1.60107      4.47456      1.61756        -0.054027      0.049471     -0.688791
      4.80320      4.47456      1.61756         0.054783      0.049468     -0.688765
      0.04245      3.23512     10.06912        -0.014956     -0.000000     -0.002347
      3.20205      3.23512     10.08807         0.001719     -0.000000      0.048290
     12.80558      0.00000      6.84009         0.006377     -0.000000     -0.002538
      3.20208      0.00000      6.84027        -0.000010     -0.000000      0.006361
      1.60405      5.24334     11.42040        -0.009100      0.007083     -0.007104
      4.80035      5.24318     11.42053         0.006812      0.010744     -0.008355
      1.60062      1.99421      8.08574        -0.016752     -0.005684      0.010334
      4.80359      1.99431      8.08616         0.016819     -0.007938      0.010422
      0.00111      3.23512     12.54245        -0.008201     -0.000000      0.027873
      3.20234      3.23512     12.54067        -0.014302     -0.000000      0.004471
     12.80662      0.00000      9.31478         0.023390     -0.000000      0.010713
      3.20224      0.00000      9.30863         0.000322     -0.000000      0.028312
      1.60405      1.22690     11.42040        -0.009100     -0.007083     -0.007104
      4.80035      1.22707     11.42053         0.006812     -0.010744     -0.008355
      1.60062      4.47604      8.08574        -0.016752      0.005684      0.010334
      4.80359      4.47593      8.08616         0.016819      0.007938      0.010422
      8.00533      3.23512      4.85268         0.029903     -0.000000     -0.301767
     11.20747      3.23512      4.85268        -0.028860     -0.000000     -0.301888
      8.00533      0.00000      1.61756        -0.004572     -0.000000     -0.934033
     11.20747      0.00000      1.61756         0.005097     -0.000000     -0.933867
      6.40427      3.23512      1.61756        -0.011829     -0.000000      1.613346
      9.60640      3.23512      1.61756         0.000366     -0.000000      1.508512
      6.40427      0.00000      4.85268         0.012413     -0.000000     -0.337842
      9.60640      0.00000      4.85268         0.000579     -0.000000     -0.320661
      7.98696      3.23512     11.35450         0.021116     -0.000000      0.022427
     11.22574      3.23512     11.35482        -0.024164     -0.000000      0.016140
      8.00607      0.00000      8.08281         0.004707     -0.000000      0.004446
     11.20669      0.00000      8.08319        -0.011634     -0.000000      0.000513
[...]
      6.36162      3.23512     10.06904         0.017936     -0.000000     -0.002459
      9.60646      3.23512     10.13851        -0.001297     -0.000000      0.035518
      6.40702      0.00000      6.83973        -0.009022     -0.000000      0.019020
      9.60640      0.00000      6.83931         0.001717     -0.000000      0.012125
      8.01242      5.23290     11.44535         0.007622      0.014207      0.023329
     11.19991      5.23304     11.44617         0.001583      0.013411      0.013162
      8.00322      1.99471      8.10930         0.013984     -0.007863      0.003388
     11.20936      1.99466      8.10991        -0.011137     -0.000412     -0.004702
      6.40341      3.23512     12.54282        -0.008220     -0.000000      0.026074
      6.40622      0.00000      9.31485        -0.023926     -0.000000     -0.001093
      9.60608      0.00000      9.31255         0.001143     -0.000000      0.010049
      8.01242      1.23734     11.44535         0.007622     -0.014207      0.023329
     11.19991      1.23721     11.44617         0.001583     -0.013411      0.013162
      8.00322      4.47553      8.10930         0.013984      0.007863      0.003388
     11.20936      4.47558      8.10991        -0.011137      0.000412     -0.004702
    total drift:                               -0.035595      0.000000     -0.020035

  FREE ENERGIE OF THE ION-ELECTRON SYSTEM (eV)
  free  energy   TOTEN  =      -608.01027421 eV

  energy  without entropy=     -607.94036731  energy(sigma->0) =     -607.97532076

 d Force = 0.8675404E-03[ 0.178E-03, 0.156E-02]  d Energy = 0.9594026E-03-0.919E-04
 d Force = 0.7252550E+02[ 0.725E+02, 0.725E+02]  d Ewald  = 0.7252549E+02 0.372E-05

 stress matrix after NEB project (eV)
    -16.63782      0.00000     -0.01714
      0.00000     -9.31031      0.00000
     -0.01714      0.00000     -3.70715
  FORCES: max atom, RMS     0.048321    0.015140
  FORCE total and by dimension    0.147570    0.048290
  Stress total and by dimension   19.422731   16.637821
 Conjugate gradient step on ions:
 trial-energy change:   -0.000959  1 .order   -0.000868   -0.001557   -0.000178
  (g-gl).g = 0.137E-02      g.g   = 0.181E-02  gl.gl    = 0.283E-02
 g(Force)  = 0.181E-02   g(Stress)= 0.000E+00 ortho     =-0.123E-03
 gamma     =   0.48490
 trial     =   0.89168
 opt step  =   0.97178  (harmonic =   1.00666) maximal distance =0.00336225
 next E    =  -608.010282   (d E  =  -0.00097)

 reached required accuracy - stopping structural energy minimisation