 vasp.5.4.4.18Apr17-6-g9f103f2a35 (build Feb 25 2019 10:51:38) complex

 executed on             LinuxIFC date 2023.07.18  10:47:01

 INCAR:
 POTCAR:    PAW_PBE Ir 06Sep2000
 POTCAR:    PAW_PBE O 08Apr2002
 POTCAR:    PAW_PBE Ir 06Sep2000
 POTCAR:    PAW_PBE O 08Apr2002

 POTCAR:    PAW_PBE Ir 06Sep2000
   VRHFIN =Ir: s1d8

   TITEL  = PAW_PBE Ir 06Sep2000
   POMASS =  192.220; ZVAL   =    9.000    mass and valenz
   ENMAX  =  210.864; ENMIN  =  158.148 eV

 POTCAR:    PAW_PBE O 08Apr2002
   VRHFIN =O: s2p4

   TITEL  = PAW_PBE O 08Apr2002
   POMASS =   16.000; ZVAL   =    6.000    mass and valenz
   ENMAX  =  400.000; ENMIN  =  300.000 eV

 POTCAR:    PAW_PBE Ir 06Sep2000
   VRHFIN =Ir: s1d8

   TITEL  = PAW_PBE Ir 06Sep2000
   POMASS =  192.220; ZVAL   =    9.000    mass and valenz
   ENMAX  =  210.864; ENMIN  =  158.148 eV

 POTCAR:    PAW_PBE O 08Apr2002
   VRHFIN =O: s2p4

   TITEL  = PAW_PBE O 08Apr2002
   POMASS =   16.000; ZVAL   =    6.000    mass and valenz
   ENMAX  =  400.000; ENMIN  =  300.000 eV

 Optimization of the real space projectors (new method)

 maximal supplied QI-value         = 14.36
 optimisation between [QCUT,QGAM] = [ 11.35, 22.84] = [ 36.05,146.02] Ry
 Optimized for a Real-space Cutoff    1.52 Angstroem

   l    n(q)    QCUT    max X(q) W(low)/X(q) W(high)/X(q)  e(spline)
   2      9    11.346   134.116    0.47E-03    0.13E-03    0.92E-06
   2      9    11.346   130.192    0.47E-03    0.13E-03    0.92E-06
   0     10    11.346    60.310    0.74E-04    0.13E-03    0.69E-06
   0     10    11.346    39.218    0.68E-04    0.12E-03    0.65E-06
   1     10    11.346    18.439    0.15E-03    0.34E-04    0.20E-06
   1     10    11.346    12.760    0.12E-03    0.31E-04    0.16E-06
 Optimization of the real space projectors (new method)

[...]

   l    n(q)    QCUT    max X(q) W(low)/X(q) W(high)/X(q)  e(spline)
   2      9    11.346   134.116    0.47E-03    0.13E-03    0.92E-06
   2      9    11.346   130.192    0.47E-03    0.13E-03    0.92E-06
   0     10    11.346    60.310    0.74E-04    0.13E-03    0.69E-06
   0     10    11.346    39.218    0.68E-04    0.12E-03    0.65E-06
   1     10    11.346    18.439    0.15E-03    0.34E-04    0.20E-06
   1     10    11.346    12.760    0.12E-03    0.31E-04    0.16E-06
 Optimization of the real space projectors (new method)

 maximal supplied QI-value         = 24.76
 optimisation between [QCUT,QGAM] = [ 11.39, 22.77] = [ 36.31,145.25] Ry
 Optimized for a Real-space Cutoff    1.00 Angstroem

   l    n(q)    QCUT    max X(q) W(low)/X(q) W(high)/X(q)  e(spline)
   0      7    11.387    20.381    0.39E-03    0.13E-02    0.15E-06
   0      7    11.387    15.268    0.42E-03    0.14E-02    0.17E-06
   1      6    11.387     5.964    0.41E-03    0.11E-02    0.17E-06
   1      6    11.387     5.382    0.39E-03    0.87E-03    0.15E-06

  PAW_PBE Ir 06Sep2000                  :
  PAW_PBE O 08Apr2002                   :
  PAW_PBE Ir 06Sep2000                  :
  PAW_PBE O 08Apr2002                   :

 POSCAR: Ir  O Ir  O
  positions in cartesian coordinates
 exchange correlation table for  LEXCH =        9
   RHO(1)=    0.500       N(1)  =     2000
   RHO(2)=  100.500       N(2)  =     4000

 VTST: version 3.2, (02/03/18)

 CHAIN: initializing optimizer

 OPT: Using VASP Dynamics algorithm
 CHAIN: Read ICHAIN            0

 POSCAR: Ir  O Ir  O
  positions in cartesian coordinates

 ion  position               nearest neighbor table
   1  0.125  0.500  0.188-  21 2.00  29 2.00  17 2.02  25 2.02  26 2.02  18 2.02   2 3.20  50 3.20

   2  0.375  0.500  0.188-  22 2.00  30 2.00  26 2.02  18 2.02  63 2.02  71 2.02   1 3.20  49 3.20

[...]

  63  0.500  0.500  0.140-  53 2.00  49 2.02   2 2.02
  64  0.750  0.500  0.140-  54 2.00  50 2.02  49 2.02
  65  0.500  0.000  0.015-   4 2.02  51 2.02
  66  0.750  0.000  0.015-  51 2.02  52 2.02
  67  0.625  0.808  0.188-  49 2.00  55 2.02  56 2.02
  68  0.875  0.808  0.188-  50 2.00   7 2.02  56 2.02
  69  0.625  0.308  0.062-  51 2.00  53 2.02  54 2.02
  70  0.875  0.308  0.062-  52 2.00   5 2.02  54 2.02
  71  0.500  0.500  0.235-   2 2.02  49 2.02  59 2.03
  72  0.750  0.500  0.235-  49 2.02  50 2.02  60 2.10
  73  0.500  0.000  0.110-  55 2.00  51 2.02   4 2.02
  74  0.750  0.000  0.110-  56 2.00  52 2.02  51 2.02
  75  0.625  0.192  0.188-  49 2.00  55 2.02  56 2.02
  76  0.875  0.192  0.188-  50 2.00   7 2.02  56 2.02
  77  0.625  0.692  0.062-  51 2.00  53 2.02  54 2.02
  78  0.875  0.692  0.062-  52 2.00   5 2.02  54 2.02
  79  0.486  0.500  0.388-  59 1.92  10 1.94
  80  0.749  0.500  0.386-  60 1.79
  81  0.501  0.000  0.265-  55 1.99  12 2.02  57 2.05
  82  0.750  0.000  0.264-  56 1.99  58 2.01  57 2.01
  83  0.631  0.816  0.443-  61 1.95  62 1.97
  84  0.869  0.816  0.443-  15 1.95  62 1.97
  85  0.625  0.309  0.312-  57 2.00  60 2.03  59 2.04
  86  0.875  0.309  0.313-  58 2.00  60 2.03  13 2.04
  87  0.462  0.500  0.496-  10 1.80
  88  0.501  0.000  0.360-  61 1.94  57 2.02  12 2.03
  89  0.750  0.000  0.360-  58 1.99  57 1.99  62 2.55
  90  0.631  0.184  0.443-  61 1.95  62 1.97
  91  0.869  0.184  0.443-  15 1.95  62 1.97
  92  0.625  0.691  0.312-  57 2.00  60 2.03  59 2.04
  93  0.875  0.691  0.313-  58 2.00  60 2.03  13 2.04
  94  0.750  0.000  0.526-  62 1.75

  LATTYP: Found a simple orthorhombic cell.
 ALAT       =     6.4702430000
 B/A-ratio  =     1.9796060210
 C/A-ratio  =     4.0000000000

  Lattice vectors:

 A1 = (   0.0000000000,  -6.4702430000,   0.0000000000)
 A2 = ( -12.8085320000,   0.0000000000,   0.0000000000)
 A3 = (   0.0000000000,   0.0000000000, -25.8809720000)

Analysis of symmetry for initial positions (statically):
 Subroutine PRICEL returns:
 Original cell was already a primitive cell.

 Routine SETGRP: Setting up the symmetry group for a
 simple orthorhombic supercell.

 Subroutine GETGRP returns: Found  2 space group operations
 (whereof  2 operations were pure point group operations)
 out of a pool of  8 trial point group operations.

The static configuration has the point symmetry C_1h.

Analysis of symmetry for dynamics (positions and initial velocities):
 Subroutine PRICEL returns:
 Original cell was already a primitive cell.

[...]

The dynamic configuration has the point symmetry C_1h.

Analysis of constrained symmetry for selective dynamics:
 Subroutine PRICEL returns:
 Original cell was already a primitive cell.

[...]

The constrained configuration has the point symmetry C_1h.

Analysis of structural, dynamic, and magnetic symmetry:
 Subroutine PRICEL returns:
 Original cell was already a primitive cell.

[...]

The magnetic configuration has the point symmetry C_1h.

 Subroutine INISYM returns: Found  2 space group operations
 (whereof  2 operations are pure point group operations),
 and found     1 'primitive' translations

 KPOINTS: Automatic mesh

Automatic generation of k-mesh.
Space group operators:
 irot       det(A)        alpha          n_x          n_y          n_z        tau_x        tau_y        tau_z
    1     1.000000     0.000001     1.000000     0.000000     0.000000     0.000000     0.000000     0.000000
    2    -1.000000   180.000000     0.000000     1.000000     0.000000     0.000000     0.000000     0.000000

 Subroutine IBZKPT returns following result:

 Found      4 irreducible k-points:

 Following reciprocal coordinates:
            Coordinates               Weight
  0.000000  0.000000  0.000000      1.000000
  0.333333  0.000000  0.000000      2.000000
  0.000000  0.333333  0.000000      2.000000
  0.333333  0.333333  0.000000      4.000000

 Following cartesian coordinates:
            Coordinates               Weight
  0.000000  0.000000  0.000000      1.000000
  0.026024  0.000000  0.000000      2.000000
  0.000000  0.051518  0.000000      2.000000
  0.026024  0.051518  0.000000      4.000000

 Subroutine IBZKPT_HF returns following result:

 Found      9 k-points in 1st BZ
 the following      9 k-points will be used (e.g. in the exchange kernel)
 Following reciprocal coordinates:   # in IRBZ
  0.000000  0.000000  0.000000    0.11111111   1 t-inv F
  0.333333  0.000000  0.000000    0.11111111   2 t-inv F
  0.000000  0.333333  0.000000    0.11111111   3 t-inv F
  0.333333  0.333333  0.000000    0.11111111   4 t-inv F
  0.000000 -0.333333  0.000000    0.11111111   3 t-inv F
  0.333333 -0.333333  0.000000    0.11111111   4 t-inv F
 -0.333333  0.000000  0.000000    0.11111111   2 t-inv T
 -0.333333 -0.333333  0.000000    0.11111111   4 t-inv T
 -0.333333  0.333333  0.000000    0.11111111   4 t-inv T

 SYSTEM =  unknown system
 POSCAR =  Ir  O Ir  O

 Startparameter for this run:
   NWRITE =      2    write-flag & timer
   PREC   = normal    normal or accurate (medium, high low for compatibility)
   ISTART =      0    job   : 0-new  1-cont  2-samecut
   ICHARG =      2    charge: 1-file 2-atom 10-const
   ISPIN  =      2    spin polarized calculation?
   LNONCOLLINEAR =      F non collinear calculations
   LSORBIT =      F    spin-orbit coupling
   INIWAV =      1    electr: 0-lowe 1-rand  2-diag
   LASPH  =      F    aspherical Exc in radial PAW
   METAGGA=      F    non-selfconsistent MetaGGA calc.

 Electronic Relaxation 1
   ENCUT  =  500.0 eV  36.75 Ry    6.06 a.u.  23.35 11.80 47.19*2*pi/ulx,y,z
   ENINI  =  500.0     initial cutoff
   ENAUG  =  605.4 eV  augmentation charge cutoff
   NELM   =     60;   NELMIN=  4; NELMDL= -5     # of ELM steps
   EDIFF  = 0.1E-04   stopping-criterion for ELM
   LREAL  =      T    real-space projection
   NLSPLINE    = F    spline interpolate recip. space projectors
   LCOMPAT=      F    compatible to vasp.4.4
   GGA_COMPAT  = T    GGA compatible to vasp.4.4-vasp.4.6
   LMAXPAW     = -100 max onsite density
   LMAXMIX     =    2 max onsite mixed and CHGCAR
   VOSKOWN=      0    Vosko Wilk Nusair interpolation
   ROPT   =   -0.00050  -0.00050  -0.00050  -0.00050
 Ionic relaxation
   EDIFFG = -.5E-01   stopping-criterion for IOM
   NSW    =   1165    number of steps for IOM
   NBLOCK =      1;   KBLOCK =   1165    inner block; outer block
   IBRION =      5    ionic relax: 0-MD 1-quasi-New 2-CG
   NFREE  =      2    steps in history (QN), initial steepest desc. (CG)
   ISIF   =      2    stress and relaxation
   IWAVPR =     11    prediction:  0-non 1-charg 2-wave 3-comb
   ISYM   =      2    0-nonsym 1-usesym 2-fastsym
   LCORR  =      T    Harris-Foulkes like correction to forces

   POTIM  = 0.5000    time-step for ionic-motion
   TEIN   =    0.0    initial temperature
   TEBEG  =    0.0;   TEEND  =   0.0 temperature during run
   SMASS  =  -3.00    Nose mass-parameter (am)
   estimated Nose-frequenzy (Omega)   =  0.10E-29 period in steps =****** mass=  -0.375E-26a.u.
   SCALEE = 1.0000    scale energy and forces
   NPACO  =    256;   APACO  = 16.0  distance and # of slots for P.C.
   PSTRESS=    0.0 pullay stress

  Mass of Ions in am
   POMASS = 192.22 16.00192.22 16.00
  Ionic Valenz
   ZVAL   =   9.00  6.00  9.00  6.00
  Atomic Wigner-Seitz radii
  virtual crystal weights
   VCA    =   1.00  1.00  1.00  1.00
   NELECT =     654.0000    total number of electrons
   NUPDOWN=      -1.0000    fix difference up-down

 DOS related values:
[...]
      9.60640      3.23512      1.61756         0.000986      0.000000      1.600620
      6.40427      0.00000      4.85268        -0.002261      0.000000     -0.164558
      9.60640      0.00000      4.85268         0.006857      0.000000     -0.296622
      8.03583      0.00000      8.09727         0.005931      0.000000      0.006972
     11.17317      0.00000      8.09964         0.007420      0.000000      0.001582
      6.37341      3.23512      8.11708        -0.011731      0.000000     -0.002863
      9.60236      3.23512      8.19613         0.005488      0.000000      0.033634
[...]
      9.59229      3.23512      9.98400         0.004648      0.000000     -0.041955
      6.41543      0.00000      6.84737        -0.002732      0.000000      0.013223
      9.60635      0.00000      6.84276        -0.011878      0.000000      0.002174
      8.08812      5.28198     11.47132         0.012062     -0.013739      0.019065
     11.12567      5.28249     11.47388         0.000523     -0.007798      0.013778
      7.99979      2.00070      8.08213         0.001893      0.004254      0.006089
     11.20660      2.00078      8.09127         0.010061      0.008012     -0.003072
      5.91979      3.23512     12.83032         0.001038      0.000000      0.011975
      6.42296      0.00000      9.31403         0.006102      0.000000     -0.003452
      9.60434      0.00000      9.32621         0.004015      0.000000      0.007783
      8.08812      1.18826     11.47132         0.012062      0.013739      0.019065
     11.12567      1.18776     11.47388         0.000523      0.007798      0.013778
      7.99979      4.46954      8.08213         0.001893     -0.004254      0.006089
     11.20660      4.46946      8.09127         0.010061     -0.008012     -0.003072
      9.60535      0.00000     13.61113         0.008120      0.000000      0.733340
    total drift:                               -0.187790     -0.001674     -0.153474

  FREE ENERGIE OF THE ION-ELECTRON SYSTEM (eV)
  free  energy   TOTEN  =      -594.78425274 eV

  energy  without entropy=     -594.72491956  energy(sigma->0) =     -594.75458615

 d Force =-0.2057321E-02[-0.220E-01, 0.179E-01]  d Energy =-0.1419154E-02-0.638E-03
 d Force =-0.5706304E+02[-0.573E+02,-0.568E+02]  d Ewald  =-0.5706208E+02-0.969E-03

 stress matrix after NEB project (eV)
    -26.99772      0.00000      0.20924
      0.00000     -5.62872      0.00000
      0.20924      0.00000     -4.70083
  FORCES: max atom, RMS     0.733385    0.075643
  FORCE total and by dimension    0.733385    0.733340
  Stress total and by dimension   27.977573   26.997717
 Finite differences progress:
  Degree of freedom:   3/  3
  Displacement:        2/  2
  Total:               6/  6

 SECOND DERIVATIVES (NOT SYMMETRIZED)
              94X         94Y         94Z
 94X    -4.517965    0.000000    0.413832
 94Y     0.024032   -2.093798    0.018136
 94Z    -0.153519    0.000000  -44.317506

 Eigenvectors and eigenvalues of the dynamical matrix

   1 f  =   26.018393 THz   163.478387 2PiTHz  867.880157 cm-1   107.603464 meV
             X         Y         Z           dx          dy          dz
      1.601066  3.235121  4.852682            0           0           0
      4.803199  3.235121  4.852682            0           0           0
      1.601066  0.000000  1.617561            0           0           0
      4.803199  0.000000  1.617561            0           0           0
      0.000000  3.235121  1.617561            0           0           0
      3.202133  3.235121  1.617561            0           0           0
      0.000000  0.000000  4.852682            0           0           0
      3.202133  0.000000  4.852682            0           0           0
      1.566676  3.235121 11.381427            0           0           0
      4.839030  3.235121 11.393758            0           0           0
      1.588650  0.000000  8.078930            0           0           0
      4.810456  0.000000  8.073544            0           0           0
      0.023293  3.235121  8.125082            0           0           0
      3.199248  3.235121  8.075009            0           0           0
     12.655537  0.000000 11.255050            0           0           0
      3.205015  0.000000 11.240008            0           0           0
      0.000000  3.235121  3.613243            0           0           0
      3.202133  3.235121  3.613243            0           0           0
      0.000000  0.000000  0.378121            0           0           0
      3.202133  0.000000  0.378121            0           0           0
      1.601066  5.230803  4.852682            0           0           0
      4.803199  5.230803  4.852682            0           0           0
      1.601066  1.995682  1.617561            0           0           0
      4.803199  1.995682  1.617561            0           0           0
      0.000000  3.235121  6.092122            0           0           0
      3.202133  3.235121  6.092122            0           0           0
      0.000000  0.000000  2.857000            0           0           0
      3.202133  0.000000  2.857000            0           0           0
      1.601066  1.239440  4.852682            0           0           0
      4.803199  1.239440  4.852682            0           0           0
      1.601066  4.474561  1.617561            0           0           0
      4.803199  4.474561  1.617561            0           0           0
      0.146298  3.235121 10.039561            0           0           0
      3.204022  3.235121 10.041991            0           0           0
     12.796593  0.000000  6.849125            0           0           0
      3.198772  0.000000  6.842634            0           0           0
      1.578532  5.259848 11.365603            0           0           0
      4.829315  5.259750 11.372930            0           0           0
      1.606691  1.994686  8.058728            0           0           0
      4.788897  1.994280  8.037986            0           0           0
      0.455847  3.235121 12.800446            0           0           0
      3.200163  3.235121 12.450086            0           0           0
     12.784575  0.000000  9.317919            0           0           0
      3.201518  0.000000  9.303224            0           0           0
      1.578532  1.210395 11.365603            0           0           0
      4.829315  1.210493 11.372930            0           0           0
      1.606691  4.475557  8.058728            0           0           0
      4.788897  4.475963  8.037986            0           0           0
      8.005332  3.235121  4.852682            0           0           0
     11.207465  3.235121  4.852682            0           0           0
      8.005332  0.000000  1.617561            0           0           0
     11.207465  0.000000  1.617561            0           0           0
      6.404266  3.235121  1.617561            0           0           0
      9.606399  3.235121  1.617561            0           0           0
      6.404266  0.000000  4.852682            0           0           0
      9.606399  0.000000  4.852682            0           0           0
      8.035825  0.000000  8.097275            0           0           0
     11.173170  0.000000  8.099635            0           0           0
      6.373413  3.235121  8.117076            0           0           0
      9.602363  3.235121  8.196133            0           0           0
[...]
      9.592286  3.235121  9.983997            0           0           0
      6.415430  0.000000  6.847369            0           0           0
      9.606347  0.000000  6.842763            0           0           0
      8.088123  5.281984 11.471317            0           0           0
     11.125669  5.282487 11.473884            0           0           0
      7.999791  2.000700  8.082135            0           0           0
     11.206603  2.000782  8.091271            0           0           0
      5.919787  3.235121 12.830325            0           0           0
      6.422965  0.000000  9.314025            0           0           0
      9.604337  0.000000  9.326209            0           0           0
      8.088123  1.188259 11.471317            0           0           0
     11.125669  1.187756 11.473884            0           0           0
      7.999791  4.469543  8.082135            0           0           0
     11.206603  4.469461  8.091271            0           0           0
      9.605346  0.000000 13.626128    -0.003270   -0.000214    0.999995

[...]

   3 f  =    5.655248 THz    35.532974 2PiTHz  188.638778 cm-1    23.388236 meV
             X         Y         Z           dx          dy          dz
      1.601066  3.235121  4.852682            0           0           0
      4.803199  3.235121  4.852682            0           0           0
      1.601066  0.000000  1.617561            0           0           0
      4.803199  0.000000  1.617561            0           0           0
      0.000000  3.235121  1.617561            0           0           0
      3.202133  3.235121  1.617561            0           0           0
      0.000000  0.000000  4.852682            0           0           0
      3.202133  0.000000  4.852682            0           0           0
      1.566676  3.235121 11.381427            0           0           0
      4.839030  3.235121 11.393758            0           0           0
      1.588650  0.000000  8.078930            0           0           0
      4.810456  0.000000  8.073544            0           0           0
      0.023293  3.235121  8.125082            0           0           0
      3.199248  3.235121  8.075009            0           0           0
     12.655537  0.000000 11.255050            0           0           0
      3.205015  0.000000 11.240008            0           0           0
      0.000000  3.235121  3.613243            0           0           0
      3.202133  3.235121  3.613243            0           0           0
      0.000000  0.000000  0.378121            0           0           0
      3.202133  0.000000  0.378121            0           0           0
      1.601066  5.230803  4.852682            0           0           0
      4.803199  5.230803  4.852682            0           0           0
      1.601066  1.995682  1.617561            0           0           0
      4.803199  1.995682  1.617561            0           0           0
      0.000000  3.235121  6.092122            0           0           0
      3.202133  3.235121  6.092122            0           0           0
      0.000000  0.000000  2.857000            0           0           0
      3.202133  0.000000  2.857000            0           0           0
      1.601066  1.239440  4.852682            0           0           0
      4.803199  1.239440  4.852682            0           0           0
      1.601066  4.474561  1.617561            0           0           0
      4.803199  4.474561  1.617561            0           0           0
      0.146298  3.235121 10.039561            0           0           0
      3.204022  3.235121 10.041991            0           0           0
     12.796593  0.000000  6.849125            0           0           0
      3.198772  0.000000  6.842634            0           0           0
      1.578532  5.259848 11.365603            0           0           0
      4.829315  5.259750 11.372930            0           0           0
      1.606691  1.994686  8.058728            0           0           0
      4.788897  1.994280  8.037986            0           0           0
      0.455847  3.235121 12.800446            0           0           0
      3.200163  3.235121 12.450086            0           0           0
     12.784575  0.000000  9.317919            0           0           0
      3.201518  0.000000  9.303224            0           0           0
      1.578532  1.210395 11.365603            0           0           0
      4.829315  1.210493 11.372930            0           0           0
      1.606691  4.475557  8.058728            0           0           0
      4.788897  4.475963  8.037986            0           0           0
      8.005332  3.235121  4.852682            0           0           0
     11.207465  3.235121  4.852682            0           0           0
      8.005332  0.000000  1.617561            0           0           0
     11.207465  0.000000  1.617561            0           0           0
      6.404266  3.235121  1.617561            0           0           0
      9.606399  3.235121  1.617561            0           0           0
      6.404266  0.000000  4.852682            0           0           0
      9.606399  0.000000  4.852682            0           0           0
      8.035825  0.000000  8.097275            0           0           0
     11.173170  0.000000  8.099635            0           0           0
      6.373413  3.235121  8.117076            0           0           0
      9.602363  3.235121  8.196133            0           0           0
[...]
      9.592286  3.235121  9.983997            0           0           0
      6.415430  0.000000  6.847369            0           0           0
      9.606347  0.000000  6.842763            0           0           0
      8.088123  5.281984 11.471317            0           0           0
     11.125669  5.282487 11.473884            0           0           0
      7.999791  2.000700  8.082135            0           0           0
     11.206603  2.000782  8.091271            0           0           0
      5.919787  3.235121 12.830325            0           0           0
      6.422965  0.000000  9.314025            0           0           0
      9.604337  0.000000  9.326209            0           0           0
      8.088123  1.188259 11.471317            0           0           0
     11.125669  1.187756 11.473884            0           0           0
      7.999791  4.469543  8.082135            0           0           0
     11.206603  4.469461  8.091271            0           0           0
      9.605346  0.000000 13.626128    -0.004969   -0.999988   -0.000230

 Finite differences POTIM=  1.500000000000000E-002
  LATTYP: Found a simple orthorhombic cell.
 ALAT       =     6.4702430000
 B/A-ratio  =     1.9796060210
 C/A-ratio  =     4.0000000000

  Lattice vectors:

 A1 = (   0.0000000000,  -6.4702430000,   0.0000000000)
 A2 = ( -12.8085320000,   0.0000000000,   0.0000000000)
 A3 = (   0.0000000000,   0.0000000000, -25.8809720000)

Analysis of symmetry for initial positions (statically):
 Subroutine PRICEL returns:
 Original cell was already a primitive cell.

[...]

The static configuration has the point symmetry C_1h.

Analysis of symmetry for dynamics (positions and initial velocities):
 Subroutine PRICEL returns:
 Original cell was already a primitive cell.

[...]

The dynamic configuration has the point symmetry C_1h.

Analysis of constrained symmetry for selective dynamics:
 Subroutine PRICEL returns:
 Original cell was already a primitive cell.

[...]

The constrained configuration has the point symmetry C_1h.

Analysis of structural, dynamic, and magnetic symmetry:
 Subroutine PRICEL returns:
 Original cell was already a primitive cell.

 Routine SETGRP: Setting up the symmetry group for a
 simple orthorhombic supercell.

 Subroutine GETGRP returns: Found  2 space group operations
 (whereof  2 operations were pure point group operations)
 out of a pool of  8 trial point group operations.

The magnetic configuration has the point symmetry C_1h.

 Subroutine INISYM returns: Found  2 space group operations
 (whereof  2 operations are pure point group operations),
 and found     1 'primitive' translations

 KPOINTS: Automatic mesh

Automatic generation of k-mesh.
Space group operators:
 irot       det(A)        alpha          n_x          n_y          n_z        tau_x        tau_y        tau_z
    1     1.000000     0.000001     1.000000     0.000000     0.000000     0.000000     0.000000     0.000000
    2    -1.000000   180.000000     0.000000     1.000000     0.000000     0.000000     0.000000     0.000000

 Subroutine IBZKPT returns following result:

 Found      4 irreducible k-points:

 Following reciprocal coordinates:
            Coordinates               Weight
  0.000000  0.000000  0.000000      1.000000
  0.333333  0.000000  0.000000      2.000000
  0.000000  0.333333  0.000000      2.000000
  0.333333  0.333333  0.000000      4.000000

 Following cartesian coordinates:
            Coordinates               Weight
  0.000000  0.000000  0.000000      1.000000
  0.026024  0.000000  0.000000      2.000000
  0.000000  0.051518  0.000000      2.000000
  0.026024  0.051518  0.000000      4.000000