 vasp.5.4.4.18Apr17-6-g9f103f2a35 (build Feb 25 2019 10:51:38) complex

 executed on             LinuxIFC date 2023.03.14  11:32:46

 INCAR:
 POTCAR:    PAW_PBE Ir 06Sep2000
 POTCAR:    PAW_PBE O 08Apr2002
 POTCAR:    PAW_PBE Ir 06Sep2000
 POTCAR:    PAW_PBE O 08Apr2002
 POTCAR:    PAW_PBE Ir 06Sep2000
   VRHFIN =Ir: s1d8

   TITEL  = PAW_PBE Ir 06Sep2000
   POMASS =  192.220; ZVAL   =    9.000    mass and valenz
   ENMAX  =  210.864; ENMIN  =  158.148 eV

 POTCAR:    PAW_PBE O 08Apr2002
   VRHFIN =O: s2p4

   TITEL  = PAW_PBE O 08Apr2002
   POMASS =   16.000; ZVAL   =    6.000    mass and valenz
   ENMAX  =  400.000; ENMIN  =  300.000 eV

 POTCAR:    PAW_PBE Ir 06Sep2000
   VRHFIN =Ir: s1d8

   TITEL  = PAW_PBE Ir 06Sep2000
   POMASS =  192.220; ZVAL   =    9.000    mass and valenz
   ENMAX  =  210.864; ENMIN  =  158.148 eV

 POTCAR:    PAW_PBE O 08Apr2002
   VRHFIN =O: s2p4

   TITEL  = PAW_PBE O 08Apr2002
   POMASS =   16.000; ZVAL   =    6.000    mass and valenz
   ENMAX  =  400.000; ENMIN  =  300.000 eV

 Optimization of the real space projectors (new method)

 maximal supplied QI-value         = 14.36
 optimisation between [QCUT,QGAM] = [ 11.35, 22.84] = [ 36.05,146.02] Ry
 Optimized for a Real-space Cutoff    1.52 Angstroem

   l    n(q)    QCUT    max X(q) W(low)/X(q) W(high)/X(q)  e(spline)
   2      9    11.346   134.116    0.47E-03    0.13E-03    0.92E-06
   2      9    11.346   130.192    0.47E-03    0.13E-03    0.92E-06
   0     10    11.346    60.310    0.74E-04    0.13E-03    0.69E-06
   0     10    11.346    39.218    0.68E-04    0.12E-03    0.65E-06
   1     10    11.346    18.439    0.15E-03    0.34E-04    0.20E-06
   1     10    11.346    12.760    0.12E-03    0.31E-04    0.16E-06
 Optimization of the real space projectors (new method)

[...]

   l    n(q)    QCUT    max X(q) W(low)/X(q) W(high)/X(q)  e(spline)
   2      9    11.346   134.116    0.47E-03    0.13E-03    0.92E-06
   2      9    11.346   130.192    0.47E-03    0.13E-03    0.92E-06
   0     10    11.346    60.310    0.74E-04    0.13E-03    0.69E-06
   0     10    11.346    39.218    0.68E-04    0.12E-03    0.65E-06
   1     10    11.346    18.439    0.15E-03    0.34E-04    0.20E-06
   1     10    11.346    12.760    0.12E-03    0.31E-04    0.16E-06
 Optimization of the real space projectors (new method)

 maximal supplied QI-value         = 24.76
 optimisation between [QCUT,QGAM] = [ 11.39, 22.77] = [ 36.31,145.25] Ry
 Optimized for a Real-space Cutoff    1.00 Angstroem

   l    n(q)    QCUT    max X(q) W(low)/X(q) W(high)/X(q)  e(spline)
   0      7    11.387    20.381    0.39E-03    0.13E-02    0.15E-06
   0      7    11.387    15.268    0.42E-03    0.14E-02    0.17E-06
   1      6    11.387     5.964    0.41E-03    0.11E-02    0.17E-06
   1      6    11.387     5.382    0.39E-03    0.87E-03    0.15E-06

  PAW_PBE Ir 06Sep2000                  :
  PAW_PBE O 08Apr2002                   :
  PAW_PBE Ir 06Sep2000                  :
  PAW_PBE O 08Apr2002                   :

 POSCAR: Ir  O Ir  O
  positions in direct lattice
  velocities in cartesian coordinates
 exchange correlation table for  LEXCH =        9
   RHO(1)=    0.500       N(1)  =     2000
   RHO(2)=  100.500       N(2)  =     4000

 VTST: version 3.2, (02/03/18)

 CHAIN: initializing optimizer

 OPT: Using VASP Conjugate-Gradient optimizer
 CHAIN: Read ICHAIN            0

 POSCAR: Ir  O Ir  O
  positions in direct lattice
  velocities in cartesian coordinates

 ion  position               nearest neighbor table
   1  0.125  0.500  0.188-  21 2.00  29 2.00  17 2.02  25 2.02  26 2.02  18 2.02   2 3.20  52 3.20

   2  0.375  0.500  0.188-  22 2.00  30 2.00  26 2.02  18 2.02  66 2.02  74 2.02   1 3.20  51 3.20

[...]

  65  0.755  0.000  0.433-  93 1.93  87 1.95  95 1.95  94 2.05  86 2.05  15 3.06  64 3.27
  66  0.500  0.500  0.140-  55 2.00  51 2.02   2 2.02
  67  0.750  0.500  0.140-  56 2.00  52 2.02  51 2.02
  68  0.500  0.000  0.015-   4 2.02  53 2.02
  69  0.750  0.000  0.015-  53 2.02  54 2.02
  70  0.625  0.808  0.188-  51 2.00  57 2.02  58 2.02
  71  0.875  0.808  0.188-  52 2.00   7 2.02  58 2.02
  72  0.625  0.308  0.062-  53 2.00  55 2.02  56 2.02
  73  0.875  0.308  0.062-  54 2.00   5 2.02  56 2.02
  74  0.500  0.500  0.235-  62 1.98  51 2.02   2 2.02
  75  0.750  0.500  0.235-  51 2.02  52 2.02  63 2.04
  76  0.500  0.000  0.110-  57 2.00  53 2.02   4 2.02
  77  0.750  0.000  0.110-  58 2.00  54 2.02  53 2.02
  78  0.625  0.192  0.188-  51 2.00  57 2.02  58 2.02
  79  0.875  0.192  0.188-  52 2.00   7 2.02  58 2.02
  80  0.625  0.692  0.062-  53 2.00  55 2.02  56 2.02
  81  0.875  0.692  0.062-  54 2.00   5 2.02  56 2.02
  82  0.501  0.500  0.388-  62 1.97  10 2.02  59 2.13
  83  0.733  0.500  0.388-  63 1.92  59 1.94
  84  0.500  0.000  0.265-  57 2.00  60 2.01  12 2.03
  85  0.751  0.000  0.265-  58 1.99  60 2.04  61 2.04
  86  0.626  0.812  0.439-  59 2.02  64 2.03  65 2.05
  87  0.875  0.815  0.438-  15 1.94  65 1.95
  88  0.624  0.308  0.311-  60 1.99  62 2.02  63 2.02
  89  0.876  0.309  0.314-  61 2.00  13 2.04  63 2.05
  90  0.497  0.500  0.480-  59 1.96  10 1.96
  91  0.708  0.500  0.498-  59 1.78
  92  0.501  0.000  0.361-  60 2.02  12 2.03  64 2.10
  93  0.751  0.000  0.359-  65 1.93  61 2.01  60 2.03
  94  0.626  0.188  0.439-  59 2.02  64 2.03  65 2.05
  95  0.875  0.185  0.438-  15 1.94  65 1.95
  96  0.624  0.692  0.311-  60 1.99  62 2.02  63 2.02
  97  0.876  0.691  0.314-  61 2.00  13 2.04  63 2.05
  98  0.497  0.000  0.511-  64 1.80

  LATTYP: Found a simple orthorhombic cell.
 ALAT       =     6.4702430000
 B/A-ratio  =     1.9796060210
 C/A-ratio  =     4.0000000000

  Lattice vectors:

 A1 = (   0.0000000000,  -6.4702430000,   0.0000000000)
 A2 = ( -12.8085320000,   0.0000000000,   0.0000000000)
 A3 = (   0.0000000000,   0.0000000000, -25.8809720000)

Analysis of symmetry for initial positions (statically):
 Subroutine PRICEL returns:
 Original cell was already a primitive cell.

 Routine SETGRP: Setting up the symmetry group for a
 simple orthorhombic supercell.

 Subroutine GETGRP returns: Found  2 space group operations
 (whereof  2 operations were pure point group operations)
 out of a pool of  8 trial point group operations.

The static configuration has the point symmetry C_1h.

Analysis of symmetry for dynamics (positions and initial velocities):
 Subroutine PRICEL returns:
 Original cell was already a primitive cell.

[...]

The dynamic configuration has the point symmetry C_1h.

Analysis of constrained symmetry for selective dynamics:
 Subroutine PRICEL returns:
 Original cell was already a primitive cell.

 Routine SETGRP: Setting up the symmetry group for a
 simple orthorhombic supercell.

 Subroutine GETGRP returns: Found  2 space group operations
 (whereof  2 operations were pure point group operations)
 out of a pool of  8 trial point group operations.

The constrained configuration has the point symmetry C_1h.

 Subroutine INISYM returns: Found  2 space group operations
 (whereof  2 operations are pure point group operations),
 and found     1 'primitive' translations

 KPOINTS: Automatic mesh

Automatic generation of k-mesh.
Space group operators:
 irot       det(A)        alpha          n_x          n_y          n_z        tau_x        tau_y        tau_z
    1     1.000000     0.000001     1.000000     0.000000     0.000000     0.000000     0.000000     0.000000
    2    -1.000000   180.000000     0.000000     1.000000     0.000000     0.000000     0.000000     0.000000

 Subroutine IBZKPT returns following result:

 Found      4 irreducible k-points:

 Following reciprocal coordinates:
            Coordinates               Weight
  0.000000  0.000000  0.000000      1.000000
  0.333333  0.000000  0.000000      2.000000
  0.000000  0.333333  0.000000      2.000000
  0.333333  0.333333  0.000000      4.000000

 Following cartesian coordinates:
            Coordinates               Weight
  0.000000  0.000000  0.000000      1.000000
  0.026024  0.000000  0.000000      2.000000
  0.000000  0.051518  0.000000      2.000000
  0.026024  0.051518  0.000000      4.000000

 SYSTEM =  unknown system
 POSCAR =  Ir  O Ir  O

 Startparameter for this run:
   NWRITE =      2    write-flag & timer
   PREC   = normal    normal or accurate (medium, high low for compatibility)
   ISTART =      0    job   : 0-new  1-cont  2-samecut
   ICHARG =      2    charge: 1-file 2-atom 10-const
   ISPIN  =      1    spin polarized calculation?
   LNONCOLLINEAR =      F non collinear calculations
   LSORBIT =      F    spin-orbit coupling
   INIWAV =      1    electr: 0-lowe 1-rand  2-diag
   LASPH  =      F    aspherical Exc in radial PAW
   METAGGA=      F    non-selfconsistent MetaGGA calc.

 Electronic Relaxation 1
   ENCUT  =  500.0 eV  36.75 Ry    6.06 a.u.  23.35 11.80 47.19*2*pi/ulx,y,z
   ENINI  =  500.0     initial cutoff
   ENAUG  =  605.4 eV  augmentation charge cutoff
   NELM   =     60;   NELMIN=  4; NELMDL= -5     # of ELM steps
   EDIFF  = 0.1E-04   stopping-criterion for ELM
   LREAL  =      T    real-space projection
   NLSPLINE    = F    spline interpolate recip. space projectors
   LCOMPAT=      F    compatible to vasp.4.4
   GGA_COMPAT  = T    GGA compatible to vasp.4.4-vasp.4.6
   LMAXPAW     = -100 max onsite density
   LMAXMIX     =    2 max onsite mixed and CHGCAR
   VOSKOWN=      0    Vosko Wilk Nusair interpolation
   ROPT   =   -0.00050  -0.00050  -0.00050  -0.00050
 Ionic relaxation
   EDIFFG = -.5E-01   stopping-criterion for IOM
   NSW    =    500    number of steps for IOM
   NBLOCK =      1;   KBLOCK =    500    inner block; outer block
   IBRION =      2    ionic relax: 0-MD 1-quasi-New 2-CG
   NFREE  =      1    steps in history (QN), initial steepest desc. (CG)
   ISIF   =      2    stress and relaxation
   IWAVPR =     11    prediction:  0-non 1-charg 2-wave 3-comb
   ISYM   =      2    0-nonsym 1-usesym 2-fastsym
   LCORR  =      T    Harris-Foulkes like correction to forces

   POTIM  = 0.5000    time-step for ionic-motion
   TEIN   =    0.0    initial temperature
   TEBEG  =    0.0;   TEEND  =   0.0 temperature during run
   SMASS  =  -3.00    Nose mass-parameter (am)
   estimated Nose-frequenzy (Omega)   =  0.10E-29 period in steps =****** mass=  -0.375E-26a.u.
   SCALEE = 1.0000    scale energy and forces
   NPACO  =    256;   APACO  = 16.0  distance and # of slots for P.C.
   PSTRESS=    0.0 pullay stress

  Mass of Ions in am
   POMASS = 192.22 16.00192.22 16.00
  Ionic Valenz
   ZVAL   =   9.00  6.00  9.00  6.00
  Atomic Wigner-Seitz radii
  virtual crystal weights
   VCA    =   1.00  1.00  1.00  1.00
   NELECT =     681.0000    total number of electrons
   NUPDOWN=      -1.0000    fix difference up-down

 DOS related values:
   EMIN   =  10.00;   EMAX   =-10.00  energy-range for DOS
   EFERMI =   0.00
   ISMEAR =     0;   SIGMA  =   0.05  broadening in eV -4-tet -1-fermi 0-gaus

 Electronic relaxation 2 (details)
   IALGO  =     68    algorithm
   LDIAG  =      T    sub-space diagonalisation (order eigenvalues)
   LSUBROT=      F    optimize rotation matrix (better conditioning)
   TURBO    =      0    0=normal 1=particle mesh
[...]
   0.199E+01 0.297E-13 0.257E+04   -.197E+01 0.737E-13 -.257E+04   0.287E-02 0.000E+00 -.265E+01   -.219E-01 0.188E-12 0.339E-01
   0.137E+02 0.791E-12 0.827E+03   -.137E+02 0.488E-13 -.828E+03   -.332E-02 0.000E+00 0.212E+00   0.542E-03 -.487E-12 0.317E+00
   0.781E+01 0.247E-11 0.846E+03   -.777E+01 -.136E-13 -.847E+03   0.149E-01 0.000E+00 0.193E+00   -.294E-01 -.178E-12 0.301E+00
   0.165E+03 -.221E-12 -.228E+04   -.165E+03 -.585E-13 0.228E+04   0.686E-01 0.000E+00 -.167E+01   0.784E-01 0.505E-12 0.151E+00
   -.236E+02 0.953E-12 -.225E+04   0.237E+02 -.206E-13 0.226E+04   -.234E-01 0.000E+00 -.149E+01   -.993E-01 0.699E-12 0.217E+00
   0.588E+02 0.590E-13 -.786E+03   -.588E+02 0.159E-13 0.786E+03   -.173E-01 0.000E+00 -.461E+00   -.362E-01 -.290E-12 0.414E+00
   -.108E+02 -.629E-13 -.758E+03   0.106E+02 0.322E-13 0.758E+03   0.163E+00 0.000E+00 -.207E+00   -.365E-01 -.601E-12 0.409E+00
   0.990E+02 0.479E-12 -.836E+03   -.991E+02 -.103E-16 0.836E+03   0.124E+00 0.000E+00 -.687E+00   0.130E-01 0.826E-13 0.363E+00
   0.242E+02 0.406E-13 -.737E+03   -.242E+02 0.182E-13 0.736E+03   -.860E-02 0.000E+00 -.247E+00   -.462E-01 0.324E-12 0.391E+00
   0.126E+03 -.769E-13 -.232E+04   -.128E+03 0.148E-13 0.232E+04   0.136E+01 0.000E+00 -.139E+01   0.163E+00 -.573E-12 0.228E+00
   0.343E+02 0.398E-12 -.228E+04   -.347E+02 -.396E-13 0.228E+04   0.446E+00 0.000E+00 -.156E+01   -.303E-01 0.139E-12 0.289E+00
   0.519E+01 -.100E-11 0.101E+04   -.524E+01 -.140E-13 -.101E+04   0.710E-01 0.000E+00 -.165E+01   0.403E-03 0.456E-12 0.192E+00
   0.330E+01 0.773E-12 0.102E+04   -.315E+01 -.856E-14 -.102E+04   -.176E+00 0.000E+00 -.171E+01   -.170E-01 0.132E-12 0.196E+00
   0.117E+01 0.747E-12 0.201E+04   -.116E+01 0.719E-14 -.204E+04   0.183E-01 0.000E+00 0.277E+02   -.309E-02 -.627E-13 -.818E-01
   0.789E+00 -.158E-11 0.202E+04   -.767E+00 0.954E-14 -.204E+04   0.308E-02 0.000E+00 0.277E+02   -.122E-01 -.495E-15 -.886E-01
   0.102E+02 0.330E+02 0.562E+03   -.101E+02 -.346E+02 -.563E+03   -.772E-01 0.162E+01 -.324E-01   -.127E-01 0.163E-01 0.212E+00
   -.104E+01 0.329E+02 0.568E+03   0.103E+01 -.346E+02 -.569E+03   0.710E-01 0.164E+01 -.336E-01   -.174E-01 0.145E-01 0.205E+00
   0.230E+01 -.353E+01 0.165E+04   -.226E+01 0.170E+01 -.165E+04   -.757E-01 0.180E+01 -.534E+00   -.123E-01 -.386E-01 0.258E-01
   -.312E+00 -.350E+01 0.165E+04   0.320E+00 0.169E+01 -.165E+04   0.565E-01 0.180E+01 -.541E+00   -.126E-01 -.396E-01 0.215E-01
   0.233E+02 0.545E-12 0.985E+02   -.234E+02 0.177E-13 -.954E+02   -.205E+00 0.000E+00 -.283E+01   0.389E-02 0.265E-12 0.269E+00
   0.692E+01 0.975E-12 0.132E+03   -.703E+01 -.849E-15 -.130E+03   0.203E+00 0.000E+00 -.192E+01   -.232E-01 0.429E-12 0.259E+00
   0.335E+01 -.124E-11 0.118E+04   -.335E+01 0.250E-13 -.118E+04   0.822E-02 0.000E+00 0.316E+00   -.162E-02 -.274E-12 0.128E+00
   0.228E+01 -.439E-13 0.119E+04   -.225E+01 0.163E-13 -.119E+04   -.154E-01 0.000E+00 0.249E+00   -.170E-01 -.108E-12 0.129E+00
   0.102E+02 -.330E+02 0.562E+03   -.101E+02 0.346E+02 -.563E+03   -.772E-01 -.162E+01 -.324E-01   -.127E-01 -.163E-01 0.212E+00
   -.104E+01 -.329E+02 0.568E+03   0.103E+01 0.346E+02 -.569E+03   0.710E-01 -.164E+01 -.336E-01   -.174E-01 -.145E-01 0.205E+00
   0.230E+01 0.353E+01 0.165E+04   -.226E+01 -.170E+01 -.165E+04   -.757E-01 -.180E+01 -.534E+00   -.123E-01 0.386E-01 0.258E-01
   -.312E+00 0.350E+01 0.165E+04   0.320E+00 -.169E+01 -.165E+04   0.565E-01 -.180E+01 -.541E+00   -.126E-01 0.396E-01 0.215E-01
   0.200E+03 0.387E-12 -.121E+04   -.218E+03 0.708E-14 0.122E+04   0.173E+02 0.000E+00 -.752E+01   0.136E-01 0.227E-12 0.149E+00
   0.423E+02 0.852E-12 -.109E+04   -.462E+02 0.248E-13 0.110E+04   0.394E+01 0.000E+00 -.278E+01   0.103E-01 0.144E-12 0.216E+00
   0.219E+02 -.321E-12 -.879E+02   -.210E+02 0.178E-13 0.851E+02   -.922E+00 0.000E+00 0.253E+01   -.104E-01 -.311E-12 0.257E+00
   0.101E+02 -.266E-12 -.622E+02   -.103E+02 0.194E-13 0.598E+02   0.179E+00 0.000E+00 0.220E+01   -.349E-01 -.395E-12 0.241E+00
   0.905E+02 0.477E+02 -.148E+04   -.941E+02 -.482E+02 0.147E+04   0.367E+01 0.314E+00 0.680E+01   -.204E-02 0.158E+00 0.180E+00
   -.163E+02 0.378E+02 -.149E+04   0.163E+02 -.395E+02 0.148E+04   0.792E-01 0.158E+01 0.424E+01   -.888E-01 0.888E-01 0.157E+00
   0.398E+02 0.363E+02 -.488E+03   -.395E+02 -.385E+02 0.485E+03   -.310E+00 0.223E+01 0.266E+01   -.906E-02 0.159E-01 0.262E+00
   -.555E+01 0.375E+02 -.491E+03   0.548E+01 -.393E+02 0.490E+03   0.841E-01 0.183E+01 0.359E+00   -.260E-01 0.734E-02 0.273E+00
   0.223E+03 0.149E-11 -.194E+04   -.241E+03 -.125E-13 0.197E+04   0.177E+02 0.000E+00 -.285E+02   0.345E-01 0.164E-12 -.228E-01
   0.248E+01 0.185E-11 -.195E+04   -.653E+00 -.102E-13 0.198E+04   -.184E+01 0.000E+00 -.286E+02   0.193E-01 -.221E-13 0.196E-01
   0.547E+02 -.864E-14 -.995E+03   -.536E+02 0.107E-13 0.100E+04   -.117E+01 0.000E+00 -.848E+01   0.263E-01 -.678E-13 0.327E+00
   0.244E+02 0.176E-12 -.936E+03   -.243E+02 -.707E-14 0.942E+03   -.127E+00 0.000E+00 -.648E+01   -.343E-01 -.949E-14 0.356E+00
   0.905E+02 -.477E+02 -.148E+04   -.941E+02 0.482E+02 0.147E+04   0.367E+01 -.314E+00 0.680E+01   -.204E-02 -.158E+00 0.180E+00
   -.163E+02 -.378E+02 -.149E+04   0.163E+02 0.395E+02 0.148E+04   0.792E-01 -.158E+01 0.424E+01   -.888E-01 -.888E-01 0.157E+00
   0.398E+02 -.363E+02 -.488E+03   -.395E+02 0.385E+02 0.485E+03   -.310E+00 -.223E+01 0.266E+01   -.906E-02 -.159E-01 0.262E+00
   -.555E+01 -.375E+02 -.491E+03   0.548E+01 0.393E+02 0.490E+03   0.841E-01 -.183E+01 0.359E+00   -.260E-01 -.734E-02 0.273E+00
   0.111E+02 -.544E-12 -.203E+04   -.108E+02 -.326E-14 0.206E+04   -.253E+00 0.000E+00 -.334E+02   -.293E-01 0.293E-12 -.102E+00
   0.930E+02 0.123E-12 -.199E+04   -.885E+02 -.274E-14 0.203E+04   -.463E+01 0.000E+00 -.344E+02   0.678E-01 -.771E-13 -.138E+00
   -.170E+02 0.344E-12 0.844E+03   0.170E+02 -.940E-13 -.844E+03   -.389E-01 0.000E+00 -.682E+00   0.153E-01 0.344E-12 0.315E+00
   0.249E+01 -.359E-11 0.824E+03   -.252E+01 -.923E-13 -.824E+03   0.200E-01 0.000E+00 -.776E+00   0.266E-01 0.810E-12 0.326E+00
   -.338E+01 0.381E-12 0.242E+04   0.339E+01 -.893E-13 -.242E+04   -.237E-02 0.000E+00 0.143E+01   0.198E-01 -.120E-12 0.271E-01
   0.457E+00 -.498E-12 0.242E+04   -.500E+00 -.558E-13 -.242E+04   0.137E-01 0.000E+00 0.144E+01   0.136E-01 -.396E-12 0.345E-01
   -.268E+01 -.130E-11 0.257E+04   0.267E+01 0.417E-14 -.256E+04   0.607E-03 0.000E+00 -.263E+01   0.356E-02 -.120E-12 0.262E-01
   -.220E+01 -.253E-11 0.256E+04   0.216E+01 0.718E-13 -.256E+04   0.777E-02 0.000E+00 -.265E+01   0.249E-01 0.591E-12 0.283E-01
   -.105E+02 0.113E-11 0.845E+03   0.105E+02 0.136E-13 -.846E+03   0.132E-01 0.000E+00 0.179E+00   -.465E-02 -.729E-12 0.301E+00
   -.111E+02 0.277E-12 0.825E+03   0.111E+02 -.205E-13 -.826E+03   -.173E-01 0.000E+00 0.871E-01   0.337E-01 -.617E-12 0.305E+00
   -.179E+03 -.272E-11 -.231E+04   0.179E+03 -.666E-14 0.231E+04   -.187E+00 0.000E+00 -.164E+01   -.141E+00 0.133E-11 0.119E+00
   -.581E+02 0.275E-12 -.793E+03   0.576E+02 -.124E-13 0.792E+03   0.451E+00 0.000E+00 0.319E+00   0.497E-03 -.194E-11 0.338E+00
[...]
   -.200E+02 0.158E-12 -.941E+02   0.204E+02 -.106E-13 0.928E+02   -.494E+00 0.000E+00 0.100E+01   0.433E-01 -.139E-11 0.237E+00
   -.115E+03 0.307E+02 -.157E+04   0.118E+03 -.318E+02 0.157E+04   -.304E+01 0.961E+00 -.740E+00   -.107E+00 0.726E-01 0.892E-01
   0.474E+02 0.224E+03 -.157E+04   -.487E+02 -.256E+03 0.157E+04   0.111E+01 0.315E+02 0.143E+01   0.210E+00 0.100E+00 0.862E-01
   -.424E+02 0.363E+02 -.505E+03   0.423E+02 -.385E+02 0.502E+03   0.125E+00 0.220E+01 0.220E+01   -.114E-02 -.448E-02 0.208E+00
   0.917E+01 0.823E+01 -.591E+03   -.955E+01 -.937E+01 0.592E+03   0.328E+00 0.116E+01 -.103E+01   0.481E-01 -.209E-01 0.224E+00
   -.331E+02 0.316E-12 -.196E+04   0.313E+02 0.112E-13 0.199E+04   0.202E+01 0.000E+00 -.284E+02   -.141E+00 0.942E-13 0.302E-01
   -.213E+03 -.183E-11 -.195E+04   0.231E+03 0.715E-14 0.197E+04   -.178E+02 0.000E+00 -.276E+02   0.267E-01 0.414E-12 0.241E-01
   -.435E+02 -.881E-14 -.954E+03   0.431E+02 0.109E-13 0.960E+03   0.502E+00 0.000E+00 -.679E+01   -.404E-01 0.461E-12 0.265E+00
   -.334E+02 0.141E-11 -.977E+03   0.325E+02 0.362E-14 0.973E+03   0.823E+00 0.000E+00 0.462E+01   0.539E-01 -.666E-13 0.145E+00
   -.115E+03 -.307E+02 -.157E+04   0.118E+03 0.318E+02 0.157E+04   -.304E+01 -.961E+00 -.740E+00   -.107E+00 -.726E-01 0.892E-01
   0.474E+02 -.224E+03 -.157E+04   -.487E+02 0.256E+03 0.157E+04   0.111E+01 -.315E+02 0.143E+01   0.210E+00 -.100E+00 0.862E-01
   -.424E+02 -.363E+02 -.505E+03   0.423E+02 0.385E+02 0.502E+03   0.125E+00 -.220E+01 0.220E+01   -.114E-02 0.448E-02 0.208E+00
   0.917E+01 -.823E+01 -.591E+03   -.955E+01 0.937E+01 0.592E+03   0.328E+00 -.116E+01 -.103E+01   0.481E-01 0.209E-01 0.224E+00
   -.636E+02 -.259E-11 -.203E+04   0.620E+02 -.968E-14 0.206E+04   0.161E+01 0.000E+00 -.330E+02   -.851E-01 -.228E-12 -.521E-01
   -.117E+01 0.164E-12 0.120E+03   0.959E-12 0.418E-13 -.105E-10   0.127E+01 0.377E-14 -.136E+03   -.192E+00 0.632E-12 0.163E+02

 POSITION                                       TOTAL-FORCE (eV/Angst)
      1.60107      3.23512      4.85268         0.018184      0.000000     -0.313698
      4.80320      3.23512      4.85268         0.021014      0.000000     -0.349987
      1.60107      0.00000      1.61756        -0.025637      0.000000     -0.926511
      4.80320      0.00000      1.61756         0.018897      0.000000     -0.899420
      0.00000      3.23512      1.61756         0.004689      0.000000      1.585515
      3.20213      3.23512      1.61756         0.000788      0.000000      1.597613
      0.00000      0.00000      4.85268         0.000843      0.000000     -0.087823
      3.20213      0.00000      4.85268         0.025341      0.000000     -0.060762
      1.56313      3.23512     11.39603         0.021297      0.000000     -0.017275
      4.79515      3.23512     11.23664         0.005378      0.000000      0.015140
      1.60160     -0.00000      8.10791        -0.009142      0.000000     -0.005068
      4.80097     -0.00000      8.11034         0.005278      0.000000      0.002221
      0.02636      3.23512      8.11423         0.014936      0.000000      0.000708
      3.20533      3.23512      8.07011        -0.006397      0.000000     -0.001528
     12.71019     -0.00000     11.50776        -0.010388      0.000000      0.020554
      3.17922     -0.00000     11.41892        -0.010135      0.000000      0.019874
      0.00000      3.23512      3.61324         0.025264      0.000000     -0.076368
      3.20213      3.23512      3.61324        -0.036245      0.000000     -0.147791
      0.00000      0.00000      0.37812         0.025690      0.000000      0.806048
      3.20213      0.00000      0.37812         0.012926      0.000000      0.807438
      1.60107      5.23080      4.85268        -0.042081     -0.029800     -0.045977
      4.80320      5.23080      4.85268         0.041734     -0.045406     -0.039824
      1.60107      1.99568      1.61756        -0.047808     -0.071584     -0.674324
      4.80320      1.99568      1.61756         0.053295     -0.056902     -0.682862
      0.00000      3.23512      6.09212        -0.315755      0.000000      0.559322
      3.20213      3.23512      6.09212         0.073215      0.000000     -0.049797
      0.00000      0.00000      2.85700         0.001925      0.000000      0.231714
      3.20213      0.00000      2.85700        -0.002071      0.000000      0.164713
      1.60107      1.23944      4.85268        -0.042081      0.029800     -0.045977
      4.80320      1.23944      4.85268         0.041734      0.045406     -0.039824
      1.60107      4.47456      1.61756        -0.047808      0.071584     -0.674324
      4.80320      4.47456      1.61756         0.053295      0.056902     -0.682862
      0.24236      3.23512     10.02140        -0.003731      0.000000      0.014248
      3.18411      3.23512     10.03033         0.028996      0.000000     -0.018973
      0.00109     -0.00000      6.85735         0.007570      0.000000      0.023144
      3.20499     -0.00000      6.86154        -0.002958      0.000000      0.013870
      1.58660      5.24612     11.25948         0.015752     -0.010867     -0.013706
      4.79424      5.23902     11.23584         0.003291      0.000050     -0.002062
      1.61510      1.99045      8.02855         0.007371     -0.004917     -0.010299
      4.80550      1.99458      8.08097        -0.012111      0.000737     -0.009957
      0.58573      3.23512     12.87706        -0.020565      0.000000     -0.005912
      3.23744      3.23512     12.40717         0.006262      0.000000      0.012961
      0.00066     -0.00000      9.37447        -0.023158      0.000000     -0.015831
      3.19648     -0.00000      9.35755         0.010137      0.000000     -0.003554
      1.58660      1.22412     11.25948         0.015752      0.010867     -0.013706
      4.79424      1.23123     11.23584         0.003291     -0.000050     -0.002062
      1.61510      4.47979      8.02855         0.007371      0.004917     -0.010299
      4.80550      4.47567      8.08097        -0.012111     -0.000737     -0.009957
      3.19306     -0.00000     13.19688        -0.000811      0.000000     -0.049449
      0.14110     -0.00000     13.25047         0.005686      0.000000     -0.042027
      8.00533      3.23512      4.85268        -0.053244      0.000000     -0.302165
     11.20747      3.23512      4.85268         0.015456      0.000000     -0.290974
      8.00533      0.00000      1.61756         0.028640      0.000000     -0.932509
     11.20747      0.00000      1.61756        -0.014873      0.000000     -0.917142
      6.40427      3.23512      1.61756         0.003469      0.000000      1.595226
      9.60640      3.23512      1.61756        -0.002097      0.000000      1.593136
      6.40427      0.00000      4.85268        -0.011163      0.000000     -0.179199
      9.60640      0.00000      4.85268        -0.009625      0.000000     -0.074702
      8.03187      3.23512     11.41908         0.004200      0.000000      0.028756
      7.98758     -0.00000      8.08799        -0.003632      0.000000      0.006962
[...]
      6.39740     -0.00000      6.85406         0.016728      0.000000      0.007040
      9.60775     -0.00000      6.85289         0.018992      0.000000      0.003598
      8.01260      5.25812     11.36525        -0.004955     -0.001788      0.016468
     11.20713      5.27646     11.33946         0.004327      0.011818      0.005524
      7.98744      1.99366      8.03854         0.002278     -0.000054      0.009626
     11.21592      2.00143      8.12475        -0.008565      0.000914     -0.004667
      6.34690      3.23512     12.41809        -0.008913      0.000000      0.016031
      9.02714      3.23512     12.89473        -0.000860      0.000000      0.011145
      6.41350     -0.00000      9.36354         0.003384      0.000000     -0.005052
      9.61731     -0.00000      9.30548        -0.029717      0.000000     -0.002260
      8.01260      1.21212     11.36525        -0.004955      0.001788      0.016468
     11.20713      1.19379     11.33946         0.004327     -0.011818      0.005524
      7.98744      4.47658      8.03854         0.002278      0.000054      0.009626
     11.21592      4.46881      8.12475        -0.008565     -0.000914     -0.004667
      6.31360     -0.00000     13.21809        -0.039151      0.000000     -0.003752
    total drift:                               -0.084330      0.000000     -0.081963

  FREE ENERGIE OF THE ION-ELECTRON SYSTEM (eV)
  free  energy   TOTEN  =      -621.26866968 eV

  energy  without entropy=     -621.17815080  energy(sigma->0) =     -621.22341024

 d Force = 0.5374912E-03[ 0.285E-03, 0.790E-03]  d Energy = 0.6327930E-03-0.953E-04
 d Force =-0.3570573E+01[-0.357E+01,-0.357E+01]  d Ewald  =-0.3570575E+01 0.207E-05

 stress matrix after NEB project (eV)
    -18.64768      0.00000      0.35201
      0.00000     -3.22847      0.00000
      0.35201      0.00000     -6.42487
  FORCES: max atom, RMS     0.049456    0.014515
  FORCE total and by dimension    0.143692    0.049449
  Stress total and by dimension   19.992140   18.647679
 Conjugate gradient step on ions:
 trial-energy change:   -0.000633  1 .order   -0.000537   -0.000790   -0.000285
  (g-gl).g = 0.182E-02      g.g   = 0.194E-02  gl.gl    = 0.260E-02
 g(Force)  = 0.194E-02   g(Stress)= 0.000E+00 ortho     = 0.108E-03
 gamma     =   0.70053
 trial     =   0.39261
 opt step  =   0.48480  (harmonic =   0.61346) maximal distance =0.00156824
 next E    =  -621.268704   (d E  =  -0.00067)

 reached required accuracy - stopping structural energy minimisation